6
Properties=species:S:1:pos:R:3:REF_forces:R:3 REF_energy=-17.678040220519545 label_source="analytic fixed-charge Coulomb + O-O repulsion" config_type=water_dimer_train_0 pbc="F F F"
O        0.00000000       0.00000000       0.00000000       3.36653103       4.63058194       3.30634733
H        0.92491532       0.22627965      -0.09778041      -4.29597491      -1.52051554       0.01529769
H       -0.32158721       0.59281755       0.67925022       0.97328218      -3.10891146      -3.32080948
O        4.46627092       0.00000000       0.00000000       3.24661183      -5.71616571      -0.52686221
H        4.49028484      -0.59491434      -0.74948789      -0.49625886       3.23630764       3.24776663
H        5.02862992      -0.41507489       0.65398549      -2.79419128       2.47870313      -2.72173996
6
Properties=species:S:1:pos:R:3:REF_forces:R:3 REF_energy=-17.611405907676733 label_source="analytic fixed-charge Coulomb + O-O repulsion" config_type=water_dimer_train_1 pbc="F F F"
O        0.00000000       0.00000000       0.00000000      -1.89550011      -4.47664557      -4.60900903
H       -0.39980627       0.17182896      -0.85256179       1.95501875      -0.16424523       4.21888553
H        0.07263118      -0.95346151       0.04321687      -0.06392568       4.64186390       0.39321819
O        6.31942954       0.00000000       0.00000000       3.78915016      -3.32032669       4.41817975
H        6.24707013      -0.91784389       0.26183687      -0.17388269       4.34387076      -1.67131978
H        7.05210826       0.33919274       0.51416147      -3.61086042      -1.02451717      -2.74995466
6
Properties=species:S:1:pos:R:3:REF_forces:R:3 REF_energy=-17.6110373353537 label_source="analytic fixed-charge Coulomb + O-O repulsion" config_type=water_dimer_train_2 pbc="F F F"
O        0.00000000       0.00000000       0.00000000      -1.64580492      -1.18760710       6.39333194
H        0.58918424      -0.21521516       0.72303265      -2.29155306       1.07741312      -3.89975553
H       -0.87162766       0.00979654       0.39547577       3.93372271       0.11136475      -2.49768596
O        6.31190501       0.00000000       0.00000000       4.98167824      -3.83105452       2.34229766
H        7.20163352       0.27020776       0.22716244      -4.42671461      -0.66767782      -1.27029079
H        6.29359293      -0.94017213       0.17880958      -0.55132836       4.49756156      -1.06789732
6
Properties=species:S:1:pos:R:3:REF_forces:R:3 REF_energy=-17.64471787472772 label_source="analytic fixed-charge Coulomb + O-O repulsion" config_type=water_dimer_train_3 pbc="F F F"
O        0.00000000       0.00000000       0.00000000      -6.18469867      -1.83456928       1.60594451
H       -0.26032130      -0.72229930       0.57161909       1.90169908       3.30826585      -2.62312091
H       -0.82602898       0.39593945      -0.27774074       4.29553043      -1.46118047       0.99290005
O        4.23734780       0.00000000       0.00000000      -2.44589790       1.80675340      -5.87805826
H        4.08950292      -0.54866136      -0.77028855       0.89169284       2.13303705       4.03888600
H        3.93366424       0.86898099      -0.26245033       1.54167422      -3.95230655       1.86344860
6
Properties=species:S:1:pos:R:3:REF_forces:R:3 REF_energy=-17.646331604117 label_source="analytic fixed-charge Coulomb + O-O repulsion" config_type=water_dimer_train_4 pbc="F F F"
O        0.00000000       0.00000000       0.00000000      -0.89265783      -4.11019459       5.14636698
H        0.39007753      -0.86525490       0.12411813      -1.50463862       4.20025408      -1.17179290
H       -0.53635818       0.13573344       0.78110702       2.41377751      -0.07288649      -3.98409721
O        4.38476495       0.00000000       0.00000000       1.46512859       6.25998384      -1.63017814
H        4.67304451       0.70748532       0.57670725      -1.42660464      -3.79921421      -2.26808070
H        4.34792075       0.39894611      -0.86931947      -0.05500500      -2.47794264       3.90778196
6
Properties=species:S:1:pos:R:3:REF_forces:R:3 REF_energy=-17.61749458311211 label_source="analytic fixed-charge Coulomb + O-O repulsion" config_type=water_dimer_train_5 pbc="F F F"
O        0.00000000       0.00000000       0.00000000       3.54864603      -0.85421968       5.60871806
H        0.29893915      -0.82307487       0.38654233      -1.72334898       3.62724800      -2.36053019
H        0.32428109       0.67621684       0.59481459      -1.82598254      -2.77177753      -3.25009403
O        6.94796421       0.00000000       0.00000000       0.99865965      -6.06318066       2.66387677
H        6.84367640      -0.85053325      -0.42655490       0.32279201       4.39542166       1.47658011
H        7.22955187      -0.21089306       0.89020467      -1.32076618       1.66650821      -4.13855073
6
Properties=species:S:1:pos:R:3:REF_forces:R:3 REF_energy=-17.658343528302375 label_source="analytic fixed-charge Coulomb + O-O repulsion" config_type=water_dimer_train_6 pbc="F F F"
O        0.00000000       0.00000000       0.00000000      -2.80016949       6.00414542      -0.14335478
H       -0.80027197       0.24814133      -0.46284176       3.74447285      -1.81428420       1.98515035
H        0.28380130       0.80332695       0.43629632      -0.91788623      -4.16073549      -1.82772430
O        4.24817297       0.00000000       0.00000000      -6.36454362      -1.14377408       1.40554955
H        3.88930546      -0.69187580       0.55565622       2.28925307       3.07698613      -2.56365986
H        3.48072924       0.47944302      -0.31208390       4.04887342      -1.96233777       1.14403904
6
Properties=species:S:1:pos:R:3:REF_forces:R:3 REF_energy=-17.61145647666188 label_source="analytic fixed-charge Coulomb + O-O repulsion" config_type=water_dimer_train_7 pbc="F F F"
O        0.00000000       0.00000000       0.00000000       1.61616104       2.21040042      -6.11693776
H        0.15572582      -0.52271052      -0.78660983      -0.86234719       1.94145057       4.13281107
H        0.12886661       0.90501668      -0.28384863      -0.75756476      -4.15173590       1.98575312
O        5.95245025       0.00000000       0.00000000       0.32006513       6.26890833      -2.36724348
H        5.61820553       0.79719421       0.41108843       1.38579538      -4.19844931      -1.44329518
H        6.34320082       0.29906240      -0.82104051      -1.70210960      -2.07057411       3.80891224
6
Properties=species:S:1:pos:R:3:REF_forces:R:3 REF_energy=-17.70384786851774 label_source="analytic fixed-charge Coulomb + O-O repulsion" config_type=water_dimer_train_8 pbc="F F F"
O        0.00000000       0.00000000       0.00000000       1.83148613      -5.52815194       3.13532692
H        0.25790228      -0.06688336       0.91937200      -1.24650057       0.99396272      -4.24725950
H        0.04627932      -0.89799399      -0.32817200      -0.48143752       4.49950636       1.07082487
O        3.13979026       0.00000000       0.00000000      -0.37132843      -2.64169611      -6.07610276
H        2.41372321       0.08291182      -0.61821041       3.00467075       0.09832048       3.37168734
H        3.79397894      -0.52022719      -0.46651118      -2.73689036       2.57805849       2.74552312
6
Properties=species:S:1:pos:R:3:REF_forces:R:3 REF_energy=-17.62883436242708 label_source="analytic fixed-charge Coulomb + O-O repulsion" config_type=water_dimer_train_9 pbc="F F F"
O        0.00000000       0.00000000       0.00000000       6.27883246      -0.86613649      -2.05306760
H        0.44118470      -0.82673231      -0.19519629      -2.64890565       3.63276011       1.11709192
H        0.66560231       0.66993401      -0.15618522      -3.62436526      -2.77596526       0.95701822
O        4.62915644       0.00000000       0.00000000       1.36742788       2.10259602      -6.20267898
H        5.11556738      -0.46878579      -0.67814167      -2.22122651       1.73087443       3.67393937
H        4.40083053       0.83727464      -0.40381963       0.84823709      -3.82412882       2.50769708
6
Properties=species:S:1:pos:R:3:REF_forces:R:3 REF_energy=-17.628102181777393 label_source="analytic fixed-charge Coulomb + O-O repulsion" config_type=water_dimer_train_10 pbc="F F F"
O        0.00000000       0.00000000       0.00000000       0.95629331      -1.21822809      -6.48071957
H       -0.54926317       0.26988126      -0.73600674       2.24134102      -0.98713616       3.95793090
H        0.72754820      -0.47278535      -0.40420226      -3.19444693       2.22571149       2.53235351
O        4.26194716       0.00000000       0.00000000       1.59690831      -5.10001445       3.98422192
H        4.12275766      -0.93588109      -0.14486097       0.42564173       4.63984081       0.14347395
H        4.68772510       0.04965660       0.85584999      -2.02573745       0.43982642      -4.13726071
6
Properties=species:S:1:pos:R:3:REF_forces:R:3 REF_energy=-17.607912289172592 label_source="analytic fixed-charge Coulomb + O-O repulsion" config_type=water_dimer_train_11 pbc="F F F"
O        0.00000000       0.00000000       0.00000000      -4.47310721      -0.98658749       4.90474613
H        0.15402467       0.01548321       0.94459966      -0.08869785       0.06297133      -4.65635148
H       -0.93479650      -0.18626443      -0.08770918       4.55673590       0.92210621      -0.24812150
O        6.80778260       0.00000000       0.00000000       1.74760319      -4.32463737       4.82155938
H        7.02469776       0.19376932       0.91193920      -1.15090696      -0.27995612      -4.50683466
H        6.89291358      -0.95082509      -0.07011567      -0.59162707       4.60610344      -0.31499787
6
Properties=species:S:1:pos:R:3:REF_forces:R:3 REF_energy=-17.626773097852194 label_source="analytic fixed-charge Coulomb + O-O repulsion" config_type=water_dimer_train_12 pbc="F F F"
O        0.00000000       0.00000000       0.00000000       2.81625362      -4.71760304       3.79836219
H        0.57173391       0.12746876       0.75703626      -2.77118358       0.06163012      -3.70736581
H       -0.07224745      -0.95032386      -0.08886342      -0.04097490       4.66112661      -0.09502733
O        5.63579779       0.00000000       0.00000000       2.78906341      -4.23603913      -4.34398795
H        5.99243159       0.20397470      -0.86454525      -1.87384634      -0.32900284       4.23013107
H        5.77126099      -0.94235346       0.09925478      -0.91931221       4.55988828       0.11788784
6
Properties=species:S:1:pos:R:3:REF_forces:R:3 REF_energy=-17.59622650906179 label_source="analytic fixed-charge Coulomb + O-O repulsion" config_type=water_dimer_train_13 pbc="F F F"
O        0.00000000       0.00000000       0.00000000      -5.45589314      -2.08850250      -3.34613035
H       -0.86453298       0.40940207      -0.03470617       4.39056461      -1.48568553       0.56731149
H       -0.07947153      -0.77595310      -0.55480888       1.05253851       3.57957686       2.78873731
O        5.26952434       0.00000000       0.00000000       5.87848748       0.93948681       3.14725134
H        6.14385064       0.05674912      -0.38544117      -4.48414239      -0.35816853       1.25201684
H        5.41391315       0.11047814       0.93977566      -1.38155507      -0.58670712      -4.40918663
6
Properties=species:S:1:pos:R:3:REF_forces:R:3 REF_energy=-17.640382926284733 label_source="analytic fixed-charge Coulomb + O-O repulsion" config_type=water_dimer_train_14 pbc="F F F"
O        0.00000000       0.00000000       0.00000000      -1.70277572       3.76078225       5.20841287
H       -0.83009904       0.45659322       0.13671157       3.74747155      -2.41481553      -1.23873543
H        0.51905024       0.20792003       0.77690923      -2.03339801      -1.34110949      -3.95572764
O        5.00911481       0.00000000       0.00000000      -3.94497469      -4.62256838      -2.69371257
H        4.08538697      -0.16664836       0.18758208       4.43095353       1.27789187      -0.49772837
H        5.23901841      -0.64680270      -0.66710002      -0.49727666       3.33981929       3.17749114
6
Properties=species:S:1:pos:R:3:REF_forces:R:3 REF_energy=-17.62873950451899 label_source="analytic fixed-charge Coulomb + O-O repulsion" config_type=water_dimer_train_15 pbc="F F F"
O        0.00000000       0.00000000       0.00000000       1.99588563       4.58259966      -4.42653299
H        0.04805093       0.94774869       0.12528118      -0.45393279      -4.60886357       0.02777363
H        0.29804653      -0.13865620      -0.89898530      -1.53733059       0.02866419       4.39477510
O        5.44653670       0.00000000       0.00000000      -1.36512400      -6.52284263       0.22359592
H        5.93611090      -0.68274871       0.45869723      -1.91958086       3.73172673      -1.97875866
H        4.71908960      -0.46377297      -0.41468927       3.28008263       2.78871563       1.75914700
6
Properties=species:S:1:pos:R:3:REF_forces:R:3 REF_energy=-17.618173102463054 label_source="analytic fixed-charge Coulomb + O-O repulsion" config_type=water_dimer_train_16 pbc="F F F"
O        0.00000000       0.00000000       0.00000000      -0.89123441       3.19918296       5.81559984
H        0.64781493       0.51406338       0.48198185      -2.59578683      -2.65463195      -2.78399414
H       -0.78706201       0.03528951       0.54361740       3.48759920      -0.56610525      -3.05348794
O        3.95778402       0.00000000       0.00000000       2.14409345       5.79406934      -2.62506074
H        4.30486691       0.76867810       0.45265801      -1.72697549      -4.02235387      -1.61845650
H        3.98730304       0.23410567      -0.92766104      -0.41769593      -1.75016123       4.26539948
6
Properties=species:S:1:pos:R:3:REF_forces:R:3 REF_energy=-17.67568261206756 label_source="analytic fixed-charge Coulomb + O-O repulsion" config_type=water_dimer_train_17 pbc="F F F"
O        0.00000000       0.00000000       0.00000000      -5.29712171       2.13855437       3.30424100
H       -0.73955441      -0.51399172       0.32419689       3.80265574       1.92925198      -1.80050895
H       -0.20582218       0.90075929       0.25000354       1.53951921      -4.08483170      -1.48719414
O        4.24644312       0.00000000       0.00000000      -2.41486520      -6.11758315       0.78210131
H        3.34771231      -0.23907500       0.22662286       4.03478412       1.78327622      -1.09699331
H        4.70096716      -0.83711461      -0.09422779      -1.66497215       4.35133229       0.29835409
6
Properties=species:S:1:pos:R:3:REF_forces:R:3 REF_energy=-17.658776713546086 label_source="analytic fixed-charge Coulomb + O-O repulsion" config_type=water_dimer_train_18 pbc="F F F"
O        0.00000000       0.00000000       0.00000000      -2.29985716      -3.55899064      -5.05187880
H        0.43357764      -0.24952032      -0.81607713      -1.64802152       1.41654228       4.08510106
H       -0.86861356      -0.39791859      -0.05833627       3.98992156       2.12702583       0.89204886
O        3.50672833       0.00000000       0.00000000      -1.80534245       5.99690719      -2.24979921
H        4.06612047       0.74801752      -0.20924162      -2.17669164      -3.94318943       1.19999637
H        2.61681429       0.31306445      -0.16209716       3.93999120      -2.03829523       1.12453173
6
Properties=species:S:1:pos:R:3:REF_forces:R:3 REF_energy=-17.644866604307843 label_source="analytic fixed-charge Coulomb + O-O repulsion" config_type=water_dimer_train_19 pbc="F F F"
O        0.00000000       0.00000000       0.00000000      -4.48247269      -4.88554135       0.48570011
H       -0.55496239      -0.34502147      -0.69943461       2.93156419       2.08603582       2.90581146
H       -0.24180744      -0.51105551       0.77238803       1.56734528       2.79014569      -3.36599324
O        4.41396548       0.00000000       0.00000000      -2.74092548       2.49007537       5.51370204
H        3.63282131      -0.31608615       0.45402111       3.61790174       1.07029993      -2.65706390
H        4.69748753       0.75873469       0.51006740      -0.89341304      -3.55101546      -2.88215647
6
Properties=species:S:1:pos:R:3:REF_forces:R:3 REF_energy=-17.619952622505263 label_source="analytic fixed-charge Coulomb + O-O repulsion" config_type=water_dimer_train_20 pbc="F F F"
O        0.00000000       0.00000000       0.00000000      -0.05462560      -0.58676374       6.66356592
H       -0.40365203      -0.68952576       0.52711584       1.73624957       3.02130076      -3.09167902
H        0.39928023       0.58890358       0.64031220      -1.68127862      -2.43584221      -3.57597213
O        6.66266635       0.00000000       0.00000000       5.12642652      -4.29568644      -0.21091882
H        7.49114994       0.04980426       0.47682945      -4.18215531       0.33003203      -2.01239243
H        6.73134542      -0.80246353      -0.51726909      -0.94461657       3.96695959       2.22739649
6
Properties=species:S:1:pos:R:3:REF_forces:R:3 REF_energy=-17.22982086500073 label_source="analytic fixed-charge Coulomb + O-O repulsion" config_type=water_dimer_train_21 pbc="F F F"
O        0.00000000       0.00000000       0.00000000       3.13556115      -4.48837969       4.32489538
H        0.91949973      -0.11809919       0.23833730      -5.30778767       1.30815100      -1.23628082
H       -0.46735601      -0.65984976       0.51225823       1.52222842       3.32823712      -2.69372398
O        2.85612698       0.00000000       0.00000000      -6.28767107       2.70359574       1.91620919
H        1.97802691      -0.37656322      -0.05807095       5.48864128       1.06986667      -0.53451140
H        2.71764646       0.87828291       0.35450546       1.44902788      -3.92147084      -1.77658838
6
Properties=species:S:1:pos:R:3:REF_forces:R:3 REF_energy=-17.678400907059025 label_source="analytic fixed-charge Coulomb + O-O repulsion" config_type=water_dimer_train_22 pbc="F F F"
O        0.00000000       0.00000000       0.00000000      -2.63170584      -5.86037475       1.52377550
H       -0.62896490      -0.51065047      -0.50977553       3.00052712       2.90519337       1.98712545
H        0.15330596      -0.52391395       0.78628449      -0.32427365       2.95283849      -3.51940608
O        4.30371731       0.00000000       0.00000000      -2.97702194       5.28361621      -2.61066557
H        3.48209483       0.02236157      -0.49057956       3.81215612      -0.72476719       2.41603489
H        4.59139371       0.91251710       0.02804780      -0.87968180      -4.55650612       0.20313580
6
Properties=species:S:1:pos:R:3:REF_forces:R:3 REF_energy=-17.603900376445967 label_source="analytic fixed-charge Coulomb + O-O repulsion" config_type=water_dimer_train_23 pbc="F F F"
O        0.00000000       0.00000000       0.00000000       2.94423239      -5.85495582       1.39702345
H        0.84346920      -0.33236518      -0.30712365      -4.04706590       2.11453536       1.12936555
H       -0.34588718      -0.69920979       0.55470674       1.08816295       3.70681616      -2.53282535
O        4.61933665       0.00000000       0.00000000      -4.35824642       3.72367304      -3.47988677
H        4.80274800       0.53613809      -0.77145840      -0.22034842      -2.73734371       3.72608725
H        3.68460345       0.12605546       0.16314323       4.59326540      -0.95272504      -0.23976413
6
Properties=species:S:1:pos:R:3:REF_forces:R:3 REF_energy=-17.60029359922163 label_source="analytic fixed-charge Coulomb + O-O repulsion" config_type=water_dimer_train_24 pbc="F F F"
O        0.00000000       0.00000000       0.00000000       2.13670147       5.35111556       3.44099247
H        0.89743766       0.31518814       0.10720970      -4.13890694      -2.01994392      -0.88876592
H       -0.53336600       0.62115922       0.49589693       1.99150086      -3.32523714      -2.54770149
O        5.82857299       0.00000000       0.00000000      -6.54979370       1.51812300      -0.18366705
H        5.40839876       0.82360111       0.24772298       2.64298758      -3.71198764      -1.03876915
H        5.10706036      -0.56209287      -0.28231716       3.91751074       2.18793014       1.21791113
6
Properties=species:S:1:pos:R:3:REF_forces:R:3 REF_energy=-17.573584873839263 label_source="analytic fixed-charge Coulomb + O-O repulsion" config_type=water_dimer_train_25 pbc="F F F"
O        0.00000000       0.00000000       0.00000000       6.37121389       0.45391148       2.24248297
H        0.31303023       0.45359507       0.78262087      -2.17641725      -1.98300417      -3.61780496
H        0.78906310      -0.37326832      -0.39278750      -4.22195779       1.52750658       1.37282435
O        5.20599125       0.00000000       0.00000000      -5.46867666      -1.96032531       3.45946763
H        4.29315999       0.24599752      -0.14985376       4.64468965      -0.79109436       0.19216168
H        5.17517751      -0.58881844       0.75403926       0.85114815       2.75300579      -3.64913167
6
Properties=species:S:1:pos:R:3:REF_forces:R:3 REF_energy=-17.640327001231036 label_source="analytic fixed-charge Coulomb + O-O repulsion" config_type=water_dimer_train_26 pbc="F F F"
O        0.00000000       0.00000000       0.00000000      -4.85614726       4.05205895       2.07425071
H       -0.83393626      -0.24318218       0.40205048       4.16323275       0.52857904      -1.97801048
H       -0.02264404       0.95609447      -0.04003056       0.70298832      -4.58183066      -0.09420728
O        6.08823809       0.00000000       0.00000000      -5.14646104      -3.99195412       1.35826137
H        5.60399666      -0.07416957       0.82233871       2.69961408       0.81336762      -3.68735758
H        5.66469659      -0.62783585      -0.58537730       2.43677315       3.17977917       2.32706325
6
Properties=species:S:1:pos:R:3:REF_forces:R:3 REF_energy=-17.599285698763 label_source="analytic fixed-charge Coulomb + O-O repulsion" config_type=water_dimer_train_27 pbc="F F F"
O        0.00000000       0.00000000       0.00000000      -5.89179690       2.95531374       1.34076241
H       -0.87855500      -0.35385184      -0.13842629       4.50093349       1.13370798       0.42281790
H       -0.14733562       0.86851972       0.37442964       1.38145372      -4.08734410      -1.76579282
O        6.17190424       0.00000000       0.00000000       4.74695812       4.63220160      -1.12430773
H        6.13244448       0.74068494      -0.60502941      -0.44476600      -3.75345863       2.72417522
H        7.03545067       0.06850238       0.40721840      -4.29278242      -0.88042059      -1.59765497
6
Properties=species:S:1:pos:R:3:REF_forces:R:3 REF_energy=-17.64420214052158 label_source="analytic fixed-charge Coulomb + O-O repulsion" config_type=water_dimer_train_28 pbc="F F F"
O        0.00000000       0.00000000       0.00000000       4.20548541       2.32911290       4.61332978
H        0.24824046       0.90980856       0.16388077      -1.59962098      -4.17694763      -1.25368822
H        0.48404890      -0.50258601       0.65523722      -2.58630903       1.85033977      -3.34567893
O        4.52123886       0.00000000       0.00000000      -2.84561124      -0.49479973      -6.00279596
H        4.42281810      -0.78768924      -0.53487462       0.78420728       3.41340839       3.01603032
H        4.13095458       0.69778630      -0.52631199       2.04184856      -2.92111368       2.97280300
6
Properties=species:S:1:pos:R:3:REF_forces:R:3 REF_energy=-17.636782774081304 label_source="analytic fixed-charge Coulomb + O-O repulsion" config_type=water_dimer_train_29 pbc="F F F"
O        0.00000000       0.00000000       0.00000000       4.33012121      -3.60644496      -3.53241223
H        0.19830511      -0.93173454       0.09368924      -1.36689536       4.43096398       0.05019702
H        0.56931835       0.29630898      -0.71014748      -2.95526518      -0.82404252       3.49010389
O        5.40171543       0.00000000       0.00000000       5.05559056       3.96486696      -1.74092345
H        5.38482242       0.74972112      -0.59486528      -0.55198556      -3.68995457       2.76513505
H        6.31091827      -0.05205281       0.29474150      -4.51156567      -0.27538889      -1.03210028
6
Properties=species:S:1:pos:R:3:REF_forces:R:3 REF_energy=-17.627720569050947 label_source="analytic fixed-charge Coulomb + O-O repulsion" config_type=water_dimer_train_30 pbc="F F F"
O        0.00000000       0.00000000       0.00000000      -4.59066851      -1.26782775      -4.68433935
H       -0.90164703       0.32060542      -0.02183219       4.40776157      -1.20764901       0.69738745
H        0.07888601      -0.54783332      -0.78095294       0.18436348       2.48038134       3.93901348
O        3.73170581       0.00000000       0.00000000      -4.45323344       0.20648275      -4.92568185
H        3.18559691       0.74428859      -0.25304426       2.80372263      -3.21465658       1.75391349
H        3.47205434      -0.70200553      -0.59665836       1.64805427       3.00326924       3.21970678
6
Properties=species:S:1:pos:R:3:REF_forces:R:3 REF_energy=-17.622834197708197 label_source="analytic fixed-charge Coulomb + O-O repulsion" config_type=water_dimer_train_31 pbc="F F F"
O        0.00000000       0.00000000       0.00000000       4.23559781       4.19798861       3.00195346
H       -0.14701068       0.49527194       0.80580730       0.09228145      -2.63082023      -3.80877240
H        0.88290349       0.24655764      -0.27554056      -4.32639466      -1.55176938       0.81675510
O        5.03294253       0.00000000       0.00000000      -3.09167938      -5.66713260      -1.76119083
H        4.40212931      -0.13361515      -0.70742739       3.12019736       1.26325657       3.22467498
H        5.13450967      -0.86481999       0.39749508      -0.03000258       4.38847704      -1.47342031
6
Properties=species:S:1:pos:R:3:REF_forces:R:3 REF_energy=-17.646156032785353 label_source="analytic fixed-charge Coulomb + O-O repulsion" config_type=water_dimer_train_32 pbc="F F F"
O        0.00000000       0.00000000       0.00000000       6.38798719      -1.81629008      -0.23425937
H        0.39894759      -0.79308315       0.35789913      -2.48848632       3.62308560      -1.49788860
H        0.72853040       0.47651280      -0.39800860      -3.88607736      -1.80325366       1.73522666
O        5.91354040       0.00000000       0.00000000       5.95932761      -2.70357757      -1.15439813
H        6.57266187      -0.25853570       0.64416615      -3.55328852       1.44553206      -2.59908536
H        6.30762965      -0.21387225      -0.84568562      -2.41946259       1.25450364       3.75040480
6
Properties=species:S:1:pos:R:3:REF_forces:R:3 REF_energy=-17.595213545872923 label_source="analytic fixed-charge Coulomb + O-O repulsion" config_type=water_dimer_train_33 pbc="F F F"
O        0.00000000       0.00000000       0.00000000      -5.69307091      -1.04648457       3.44361993
H       -0.19951624      -0.72084790       0.59733023       1.57599775       3.21060198      -2.99531274
H       -0.79171657       0.53797460       0.00020389       4.10417632      -2.16379820      -0.44264614
O        5.46752706       0.00000000       0.00000000       2.85763149      -1.71172364       5.84959883
H        6.15670178      -0.64653153       0.15253531      -3.31297781       2.97981584      -1.39456193
H        5.26849352       0.34819503       0.86912468       0.46824317      -1.26841141      -4.46069796
6
Properties=species:S:1:pos:R:3:REF_forces:R:3 REF_energy=-17.59707310226357 label_source="analytic fixed-charge Coulomb + O-O repulsion" config_type=water_dimer_train_34 pbc="F F F"
O        0.00000000       0.00000000       0.00000000      -6.53162890      -0.33639536       1.58064189
H       -0.59226411      -0.74332192      -0.11369955       3.36411129       3.21399703       0.29410755
H       -0.54307407       0.68105067       0.39682789       3.15275286      -2.87118549      -1.88610238
O        4.90488171       0.00000000       0.00000000       2.42012054       2.08760662      -5.90603330
H        4.89471393       0.88987450      -0.35249374      -0.29330744      -4.07196104       2.25125710
H        5.32284084      -0.52404144      -0.68331733      -2.11204835       1.97793823       3.66612913
6
Properties=species:S:1:pos:R:3:REF_forces:R:3 REF_energy=-17.61737538779131 label_source="analytic fixed-charge Coulomb + O-O repulsion" config_type=water_dimer_train_35 pbc="F F F"
O        0.00000000       0.00000000       0.00000000      -4.76122394      -1.12330836       4.56528972
H        0.04447470      -0.56646279       0.77030756       0.40212850       2.56733517      -3.86439154
H       -0.88050113       0.37439139       0.02794086       4.35754102      -1.44985336      -0.69730455
O        6.04965040       0.00000000       0.00000000      -1.44512415      -6.53139340       0.10031038
H        5.36783739      -0.43960329       0.50804705       3.07653036       2.70819575      -2.19383757
H        6.47205991      -0.70299553      -0.49355784      -1.62985178       3.82902420       2.08993356
6
Properties=species:S:1:pos:R:3:REF_forces:R:3 REF_energy=-17.602063497018417 label_source="analytic fixed-charge Coulomb + O-O repulsion" config_type=water_dimer_train_36 pbc="F F F"
O        0.00000000       0.00000000       0.00000000      -6.06109554       0.67578976      -2.82480181
H       -0.44323263      -0.61087803      -0.58873144       2.66481253       2.52208917       2.87256878
H       -0.61300054       0.72895644       0.09531361       3.38906441      -3.19776168      -0.04806467
O        6.96885280       0.00000000       0.00000000       5.87658991       1.14553653      -3.05342219
H        7.68684020       0.55730391       0.30023041      -3.81380682      -2.52421891      -0.89432228
H        7.27459889      -0.35684523      -0.83391406      -2.05556449       1.37856513       3.94804217
6
Properties=species:S:1:pos:R:3:REF_forces:R:3 REF_energy=-17.63496316185689 label_source="analytic fixed-charge Coulomb + O-O repulsion" config_type=water_dimer_train_37 pbc="F F F"
O        0.00000000       0.00000000       0.00000000       6.56111811       1.16371875      -0.01991931
H        0.61373919      -0.10122899       0.72753607      -3.43072599       0.28186327      -3.10038726
H        0.54038184       0.30379644      -0.72933327      -3.12366075      -1.44810688       3.12231015
O        6.74591752       0.00000000       0.00000000       5.33526189       2.60031474      -3.02673764
H        7.64896728       0.01105831       0.31719186      -4.51932429      -0.37659523      -0.97023131
H        6.78373586       0.44361661      -0.84735230      -0.82266896      -2.22119466       3.99496537
6
Properties=species:S:1:pos:R:3:REF_forces:R:3 REF_energy=-17.606503310341864 label_source="analytic fixed-charge Coulomb + O-O repulsion" config_type=water_dimer_train_38 pbc="F F F"
O        0.00000000       0.00000000       0.00000000      -4.17250770      -0.63023680      -5.22034625
H       -0.56709844       0.66886486      -0.38373299       2.95304076      -2.77908834       2.29926578
H       -0.15823850      -0.78145972      -0.52963490       1.21349971       3.41221115       2.92281056
O        6.51887182       0.00000000       0.00000000       4.82143266       4.57304027      -0.93751969
H        6.61616498       0.60652891      -0.73409030      -1.03221341      -3.16643222       3.25735126
H        7.26092486       0.19495089       0.57234892      -3.78325201      -1.40949407      -2.32156166
6
Properties=species:S:1:pos:R:3:REF_forces:R:3 REF_energy=-17.480394733848307 label_source="analytic fixed-charge Coulomb + O-O repulsion" config_type=water_dimer_train_39 pbc="F F F"
O        0.00000000       0.00000000       0.00000000       3.89825784       4.12804521      -3.83281138
H        0.46512460       0.78331917       0.29377206      -2.47940972      -3.98905962      -0.59839329
H        0.23837059      -0.08872264      -0.92278903      -1.57950231      -0.22897466       4.51188825
O        2.78106800       0.00000000       0.00000000       0.20926147       1.50545427      -6.69642613
H        2.35397654       0.70779933      -0.48253999       2.01828215      -3.26431990       2.90440942
H        3.26627175      -0.48623903      -0.66661891      -2.06688943       1.84885470       3.71133314
6
Properties=species:S:1:pos:R:3:REF_forces:R:3 REF_energy=-17.63012531817911 label_source="analytic fixed-charge Coulomb + O-O repulsion" config_type=water_dimer_train_40 pbc="F F F"
O        0.00000000       0.00000000       0.00000000       1.82359236      -6.34017803      -1.03900806
H       -0.52556782      -0.71451716      -0.35982708       2.02558307       3.85740186       1.66001939
H        0.85543524      -0.39391497       0.17115312      -3.84008023       2.49744633      -0.62944055
O        4.79935366       0.00000000       0.00000000       2.77826004      -2.20058524       5.67236045
H        4.93553769       0.49212148       0.80963090      -0.92463354      -1.80233911      -4.16617860
H        5.15887510      -0.86795783       0.18337227      -1.86272169       3.98825418      -1.49775263
6
Properties=species:S:1:pos:R:3:REF_forces:R:3 REF_energy=-17.632780018319504 label_source="analytic fixed-charge Coulomb + O-O repulsion" config_type=water_dimer_train_41 pbc="F F F"
O        0.00000000       0.00000000       0.00000000      -4.41679211       0.36785399       4.97440694
H       -0.93392663       0.19903074      -0.06632987       4.53729538      -0.88816650      -0.34702464
H        0.15227896      -0.12756701       0.93635977      -0.11116679       0.51271317      -4.61765122
O        5.19193892       0.00000000       0.00000000      -2.02995959      -6.26448667       1.12829064
H        5.72895403      -0.77760154       0.15225787      -2.04544181       4.11274664      -0.80096653
H        4.29046843      -0.31940997       0.03949773       4.06606492       2.15933937      -0.33705520
6
Properties=species:S:1:pos:R:3:REF_forces:R:3 REF_energy=-17.63517995830849 label_source="analytic fixed-charge Coulomb + O-O repulsion" config_type=water_dimer_train_42 pbc="F F F"
O        0.00000000       0.00000000       0.00000000      -5.26866513       4.02791513       0.61832130
H       -0.73554750       0.09922146      -0.60444753       3.80121455      -0.92625848       2.49947136
H       -0.19023611       0.61100686       0.71183754       1.47468703      -3.10659088      -3.11601705
O        5.92480982       0.00000000       0.00000000      -2.70904069      -6.07725979      -0.27046654
H        6.01777513      -0.65421156      -0.69252908      -0.07115195       3.55817972       2.99146084
H        5.34962088      -0.41263722       0.64429811       2.77295619       2.52401430      -2.72276992
6
Properties=species:S:1:pos:R:3:REF_forces:R:3 REF_energy=-17.616183197941176 label_source="analytic fixed-charge Coulomb + O-O repulsion" config_type=water_dimer_train_43 pbc="F F F"
O        0.00000000       0.00000000       0.00000000      -0.44708109       2.30534163       6.17829914
H        0.25750670       0.86438031       0.32057578      -0.95693912      -4.05350739      -2.11078766
H       -0.29288465      -0.46841299       0.78169028       1.37976631       1.72110722      -4.12261105
O        3.14219705       0.00000000       0.00000000       3.91200074       0.63157023      -5.33645002
H        3.78041113      -0.63067486      -0.33341243      -3.25009920       2.61036354       2.07972216
H        3.16954316       0.72313851      -0.62654187      -0.63764764      -3.21487523       3.31182745
6
Properties=species:S:1:pos:R:3:REF_forces:R:3 REF_energy=-17.611055553457327 label_source="analytic fixed-charge Coulomb + O-O repulsion" config_type=water_dimer_train_44 pbc="F F F"
O        0.00000000       0.00000000       0.00000000       4.11971096      -3.36250938       4.07850595
H        0.59993910      -0.71100227      -0.22534572      -3.09152450       3.46715936       0.45101007
H        0.11952736       0.12558567       0.94136778      -1.03187660      -0.10310648      -4.52777898
O        6.41409041       0.00000000       0.00000000      -2.61280545      -5.88932335      -1.87362404
H        6.43560990      -0.82986757       0.47653811       0.25054451       4.28778555      -1.79934834
H        5.93907828      -0.19884553      -0.80688027       2.36595109       1.59999429       3.67123534
6
Properties=species:S:1:pos:R:3:REF_forces:R:3 REF_energy=-17.591013988666617 label_source="analytic fixed-charge Coulomb + O-O repulsion" config_type=water_dimer_train_45 pbc="F F F"
O        0.00000000       0.00000000       0.00000000       4.70073205       1.81282305      -4.45944519
H        0.94276448      -0.16126575       0.03768738      -4.65580159       0.47806128       0.41707059
H       -0.12831050       0.48365152      -0.81599600      -0.06244589      -2.28122174       4.04552173
O        5.31871539       0.00000000       0.00000000      -4.83774770      -4.58741905      -0.98791572
H        5.15922082      -0.79500626       0.50868298       1.31340793       3.96175598      -2.03218880
H        4.64294800      -0.00920198      -0.67785367       3.54185522       0.61600047       3.01695739
6
Properties=species:S:1:pos:R:3:REF_forces:R:3 REF_energy=-17.633096656454352 label_source="analytic fixed-charge Coulomb + O-O repulsion" config_type=water_dimer_train_46 pbc="F F F"
O        0.00000000       0.00000000       0.00000000      -4.89824864      -2.17858995       3.96511692
H       -0.11692457       0.17924592       0.93296912       1.12600202      -0.48675536      -4.47088534
H       -0.74163839      -0.55900642      -0.23176746       3.78052081       2.66178179       0.49567180
O        5.43908296       0.00000000       0.00000000       0.59298249      -0.88954462      -6.58923971
H        4.75835852      -0.28244303      -0.61079621       2.79375134       1.32503173       3.43496237
H        6.21420443       0.12782845      -0.54688064      -3.39500801      -0.43192359       3.16437397
6
Properties=species:S:1:pos:R:3:REF_forces:R:3 REF_energy=-17.629785092501457 label_source="analytic fixed-charge Coulomb + O-O repulsion" config_type=water_dimer_train_47 pbc="F F F"
O        0.00000000       0.00000000       0.00000000      -4.45692030      -1.15745888      -4.83180533
H       -0.45179714       0.64444629      -0.54479369       2.48512240      -2.59880496       2.93379348
H       -0.33343324      -0.84507955      -0.30148743       1.97675635       3.75346252       1.89593526
O        6.96339788       0.00000000       0.00000000      -4.22685428      -5.11324966       0.74607493
H        7.16813861      -0.89980073       0.25430636      -0.34713470       4.48864630      -1.17658835
H        6.01399539       0.00483598      -0.12183330       4.56903054       0.62740468       0.43259002
6
Properties=species:S:1:pos:R:3:REF_forces:R:3 REF_energy=-17.58265296883469 label_source="analytic fixed-charge Coulomb + O-O repulsion" config_type=water_dimer_train_48 pbc="F F F"
O        0.00000000       0.00000000       0.00000000       4.20006110      -0.30348714       5.27336463
H       -0.08564166       0.45501345       0.83777091      -0.18881814      -1.89376496      -4.23687685
H        0.80837012      -0.50582006       0.08316037      -4.03355066       2.19321443      -1.02987289
O        5.26513460       0.00000000       0.00000000      -5.11202229      -3.62744909       2.50355995
H        5.30659456      -0.86755354       0.40232297       0.49279381       4.15713765      -2.03968905
H        4.33766719       0.23471558       0.03073484       4.64153617      -0.52565089      -0.47048580
6
Properties=species:S:1:pos:R:3:REF_forces:R:3 REF_energy=-17.640310045344492 label_source="analytic fixed-charge Coulomb + O-O repulsion" config_type=water_dimer_train_49 pbc="F F F"
O        0.00000000       0.00000000       0.00000000       0.16971484       3.43628824       5.68805331
H       -0.60415257      -0.05478705       0.74042548       2.58095721      -0.20441596      -3.87360596
H        0.64818672       0.65181669       0.26687228      -2.73652494      -3.24668542      -1.82087559
O        4.21217735       0.00000000       0.00000000       3.96014802       1.82435931      -5.02584003
H        3.96024777       0.41926796      -0.82278655       0.57213768      -2.04565083       4.11640300
H        5.16046134      -0.11127988      -0.06786828      -4.54643281       0.23610466       0.91586527
6
Properties=species:S:1:pos:R:3:REF_forces:R:3 REF_energy=-17.628909547961186 label_source="analytic fixed-charge Coulomb + O-O repulsion" config_type=water_dimer_train_50 pbc="F F F"
O        0.00000000       0.00000000       0.00000000       2.45252497       4.38856858      -4.38886134
H        0.83138014       0.47151041       0.05212331      -3.81874349      -2.59973014       0.31784623
H       -0.38999308       0.29155520      -0.82409514       1.37168472      -1.80878828       4.07132230
O        4.85089388       0.00000000       0.00000000       4.39958589       3.67967157       3.40210551
H        5.66180124      -0.30114834       0.40984239      -4.01112026       0.81123037      -2.17231279
H        4.81974372       0.93761820       0.19008845      -0.39393184      -4.47095210      -1.23009992
6
Properties=species:S:1:pos:R:3:REF_forces:R:3 REF_energy=-17.683224714343293 label_source="analytic fixed-charge Coulomb + O-O repulsion" config_type=water_dimer_train_51 pbc="F F F"
O        0.00000000       0.00000000       0.00000000      -0.76507224      -5.45596275      -3.66977657
H       -0.79607294      -0.34547083      -0.40391783       3.51900230       2.16174164       2.18026771
H        0.68515734      -0.61902385      -0.25219185      -2.69839801       3.34117475       1.50561485
O        3.65655677       0.00000000       0.00000000       2.76217857       1.97859806       5.63896784
H        4.19054477      -0.50544596       0.61287277      -2.62032243       1.92591137      -3.31047917
H        3.61064506       0.87452933       0.38642256      -0.19738819      -3.95146307      -2.34459465
6
Properties=species:S:1:pos:R:3:REF_forces:R:3 REF_energy=-17.65852660524589 label_source="analytic fixed-charge Coulomb + O-O repulsion" config_type=water_dimer_train_52 pbc="F F F"
O        0.00000000       0.00000000       0.00000000      -5.09702452       3.28358549      -2.65569093
H       -0.48072409       0.73367992       0.38321008       2.68994640      -3.52968633      -1.29314651
H       -0.42362025      -0.14915660      -0.84529878       2.43071872       0.23187123       3.94114450
O        4.52887251       0.00000000       0.00000000      -4.41934381      -4.17857133      -2.60426837
H        4.32188595      -0.14188035      -0.92371986       1.40847827       1.12768054       4.29442598
H        3.94415839      -0.59378736       0.47091169       2.98722494       3.06512041      -1.68246468
6
Properties=species:S:1:pos:R:3:REF_forces:R:3 REF_energy=-17.72970316881133 label_source="analytic fixed-charge Coulomb + O-O repulsion" config_type=water_dimer_train_53 pbc="F F F"
O        0.00000000       0.00000000       0.00000000      -2.61852696       3.88148438      -4.50828820
H       -0.77718962      -0.13762244      -0.54154242       3.67130616       0.11539058       2.86826574
H        0.33831859       0.85127286      -0.27768127      -0.94745472      -4.11463744       1.71571538
O        2.95459428       0.00000000       0.00000000       2.56267718      -4.08548305       4.44727788
H        3.86042905      -0.09968801       0.29284385      -4.21273694       0.92775005      -1.80316387
H        2.46589459      -0.64885323       0.50635356       1.54473529       3.27549549      -2.71980693
6
Properties=species:S:1:pos:R:3:REF_forces:R:3 REF_energy=-17.61354730265698 label_source="analytic fixed-charge Coulomb + O-O repulsion" config_type=water_dimer_train_54 pbc="F F F"
O        0.00000000       0.00000000       0.00000000      -2.52420960       0.50531088       6.18083287
H        0.46461944       0.20064333       0.81246715      -1.68285712      -0.92504823      -4.25081054
H       -0.91204777      -0.11435043       0.26706682       4.20435440       0.42133870      -1.92355375
O        6.22722859       0.00000000       0.00000000      -3.10681379       2.77238125       5.25511265
H        5.30956335       0.26521303       0.06151741       4.30012946      -1.48509727      -0.94369114
H        6.59833347       0.21969068       0.85454609      -1.19060335      -1.28888534      -4.31789009
6
Properties=species:S:1:pos:R:3:REF_forces:R:3 REF_energy=-17.592008569443276 label_source="analytic fixed-charge Coulomb + O-O repulsion" config_type=water_dimer_train_55 pbc="F F F"
O        0.00000000       0.00000000       0.00000000      -4.49183382      -4.58465280       2.04914077
H        0.16533667      -0.90722936       0.25657459      -0.13297363       4.46490111      -1.36086765
H       -0.94575028       0.10899895       0.09953634       4.60967973       0.11882475      -0.68698180
O        5.47870620       0.00000000       0.00000000       3.32338534      -4.34864685       3.92546411
H        6.25342398       0.16722445       0.53673101      -3.73430470      -0.15896079      -2.78994999
H        5.27845341      -0.92408886       0.14896455       0.42604707       4.50853458      -1.13680543
6
Properties=species:S:1:pos:R:3:REF_forces:R:3 REF_energy=-17.592741689188294 label_source="analytic fixed-charge Coulomb + O-O repulsion" config_type=water_dimer_train_56 pbc="F F F"
O        0.00000000       0.00000000       0.00000000       4.48893574      -4.92635397       0.72220214
H       -0.16988785      -0.94141813      -0.03319422       0.14988019       4.61729185       0.06981376
H        0.93926186       0.06847297       0.17126134      -4.66357896       0.25843148      -0.75020564
O        4.03443114       0.00000000       0.00000000      -3.74710352       1.43976283      -5.42725271
H        4.15906535      -0.32889173      -0.89024063      -0.02244548       1.22890476       4.45410218
H        3.28296817       0.58934193      -0.06489473       3.79431202      -2.61803694       0.93134026
6
Properties=species:S:1:pos:R:3:REF_forces:R:3 REF_energy=-17.629302727569865 label_source="analytic fixed-charge Coulomb + O-O repulsion" config_type=water_dimer_train_57 pbc="F F F"
O        0.00000000       0.00000000       0.00000000      -3.17121191      -3.77031724      -4.50385452
H        0.06734349       0.04908976      -0.95356536       0.11899598       0.26770048       4.62957905
H       -0.62275354      -0.70899551       0.16042208       3.05656208       3.50213334      -0.12137055
O        6.16490329       0.00000000       0.00000000      -1.15604312       0.13418891       6.56617555
H        5.88872251      -0.72422218       0.56165670       1.31264089       3.08019864      -3.22124100
H        6.23393707       0.74949383       0.59137566      -0.16094391      -3.21390413      -3.34928854
6
Properties=species:S:1:pos:R:3:REF_forces:R:3 REF_energy=-17.4649934652596 label_source="analytic fixed-charge Coulomb + O-O repulsion" config_type=water_dimer_train_58 pbc="F F F"
O        0.00000000       0.00000000       0.00000000      -6.31011376       2.23842552       2.11323176
H       -0.79219161      -0.51421123       0.15572763       4.19907021       1.91969889      -0.96049295
H       -0.26281176       0.90401094       0.17299145       1.95556817      -4.16780128      -1.06492743
O        2.78898596       0.00000000       0.00000000       4.44739824       0.14597328       5.40065453
H        3.74399065      -0.06224148       0.01799692      -4.67571877       0.24132219      -0.76476300
H        2.53585134       0.07282268       0.92024538       0.38379591      -0.37761860      -4.72370291
6
Properties=species:S:1:pos:R:3:REF_forces:R:3 REF_energy=-17.6420246960156 label_source="analytic fixed-charge Coulomb + O-O repulsion" config_type=water_dimer_train_59 pbc="F F F"
O        0.00000000       0.00000000       0.00000000      -2.81603278      -5.70239764      -1.94312977
H        0.40854546      -0.86192142      -0.08008691      -1.40094054       4.38248786       0.57987064
H       -0.90965165      -0.14022819      -0.26287214       4.22996382       1.31496976       1.36315011
O        5.68863487       0.00000000       0.00000000      -3.88076604       3.17514264       4.38124936
H        4.79462905       0.31542834      -0.13225122       4.28502735      -1.72769342       0.01598363
H        5.89912248       0.24598787       0.90078675      -0.41725180      -1.44250921      -4.39712397
6
Properties=species:S:1:pos:R:3:REF_forces:R:3 REF_energy=-17.431769014694776 label_source="analytic fixed-charge Coulomb + O-O repulsion" config_type=water_dimer_train_60 pbc="F F F"
O        0.00000000       0.00000000       0.00000000      -6.45651773       2.68769984       0.87964980
H       -0.75477529      -0.37471312       0.45402222       4.07677768       1.28042753      -2.06887229
H       -0.30322415       0.85550115      -0.30398147       2.19880014      -4.02839827       1.19653130
O        2.87138266       0.00000000       0.00000000       6.41303711      -2.54176356       1.35601345
H        3.44584049       0.20149641       0.73866720      -3.31251406      -0.55905075      -3.35500216
H        3.34855956      -0.66084259      -0.50181780      -2.91958314       3.16108521       1.99167990
6
Properties=species:S:1:pos:R:3:REF_forces:R:3 REF_energy=-17.76044752351631 label_source="analytic fixed-charge Coulomb + O-O repulsion" config_type=water_dimer_train_61 pbc="F F F"
O        0.00000000       0.00000000       0.00000000       2.85268901       4.18130263      -4.14880382
H        0.93385006       0.06299093      -0.20046957      -4.11210929      -0.81099673       1.27079682
H       -0.40901591       0.66872698      -0.54931052       1.42248662      -3.39938116       2.85199459
O        3.29826678       0.00000000       0.00000000       0.77907707       0.49686172       6.46539195
H        3.43042913       0.79025615       0.52369855      -0.61209045      -3.41441763      -2.99105415
H        3.35521587      -0.71800220       0.63044546      -0.33005296       2.94663117      -3.44832541
6
Properties=species:S:1:pos:R:3:REF_forces:R:3 REF_energy=-17.654248380907443 label_source="analytic fixed-charge Coulomb + O-O repulsion" config_type=water_dimer_train_62 pbc="F F F"
O        0.00000000       0.00000000       0.00000000       1.30467329      -6.46773556       0.64909028
H       -0.23457469      -0.57597701       0.72763799       0.85045820       3.26229590      -3.19020335
H        0.46715494      -0.56681503      -0.61377425      -2.13290245       3.21076249       2.54156105
O        4.71309205       0.00000000       0.00000000       1.24070314       6.32653747       1.55815975
H        4.27986811       0.78238991      -0.34119625       1.67649827      -4.11146353       1.26482418
H        5.36460208       0.33565479       0.61571291      -2.93943044      -2.22039677      -2.82343191
6
Properties=species:S:1:pos:R:3:REF_forces:R:3 REF_energy=-17.569943424670168 label_source="analytic fixed-charge Coulomb + O-O repulsion" config_type=water_dimer_train_63 pbc="F F F"
O        0.00000000       0.00000000       0.00000000       3.08676250       4.60252657       3.86551697
H        0.07262075       0.94200603      -0.15356659      -0.70455318      -4.62335743       0.14007961
H        0.47377277      -0.14692532       0.81864776      -2.42264141       0.00603311      -4.02006738
O        4.10848886       0.00000000       0.00000000       1.92525609       5.09024195       4.00752850
H        3.59828728       0.45147608       0.67238050       1.99242276      -2.58695758      -3.40283378
H        4.96305233       0.43086814       0.01748596      -3.87724676      -2.48848662      -0.59022393
6
Properties=species:S:1:pos:R:3:REF_forces:R:3 REF_energy=-17.625592974931813 label_source="analytic fixed-charge Coulomb + O-O repulsion" config_type=water_dimer_train_64 pbc="F F F"
O        0.00000000       0.00000000       0.00000000       5.68397430      -3.44857836      -0.68441905
H        0.33032628      -0.44003903      -0.78325094      -2.12918956       2.30928902       3.43869514
H        0.66598196      -0.16572339       0.66725979      -3.55070963       1.13748672      -2.74992569
O        6.18574291       0.00000000       0.00000000      -0.61672059       2.79547437      -6.04384031
H        6.12764808       0.93218323      -0.20950242       0.33608237      -4.32091437       1.65666978
H        6.14282213      -0.43991811      -0.84903575       0.27656311       1.52724261       4.38282012
6
Properties=species:S:1:pos:R:3:REF_forces:R:3 REF_energy=-17.61898051733373 label_source="analytic fixed-charge Coulomb + O-O repulsion" config_type=water_dimer_train_65 pbc="F F F"
O        0.00000000       0.00000000       0.00000000      -2.72384284      -5.57548290      -2.52226049
H       -0.03945041      -0.24868386      -0.92348895       0.55024854       1.78771262       4.23880997
H       -0.43174652      -0.71930882       0.46089218       2.16786303       3.78430454      -1.67100645
O        3.55666728       0.00000000       0.00000000      -1.01259278      -3.55824105       5.53926023
H        3.61877184      -0.94706068       0.12430175      -0.15545088       4.53267708      -1.21654262
H        3.29129999       0.33744404       0.85553700       1.17377492      -0.97097029      -4.36826064
6
Properties=species:S:1:pos:R:3:REF_forces:R:3 REF_energy=-17.644245719811824 label_source="analytic fixed-charge Coulomb + O-O repulsion" config_type=water_dimer_train_66 pbc="F F F"
O        0.00000000       0.00000000       0.00000000       3.57510800       3.27058719       4.58237264
H        0.73308979      -0.33498970       0.51632654      -3.56059968       1.00223535      -2.74633976
H       -0.10895383       0.90370386       0.29610848       0.00661955      -4.27623984      -1.82440824
O        4.59096836       0.00000000       0.00000000      -2.28248270       1.72838416      -6.01742351
H        4.27461630       0.85631113      -0.28789660       1.65943962      -3.86988969       1.96039251
H        4.51850428      -0.55588448      -0.77586935       0.60191521       2.14492282       4.04540636
6
Properties=species:S:1:pos:R:3:REF_forces:R:3 REF_energy=-17.607221138331155 label_source="analytic fixed-charge Coulomb + O-O repulsion" config_type=water_dimer_train_67 pbc="F F F"
O        0.00000000       0.00000000       0.00000000      -5.81501580      -1.78231164      -2.84188230
H       -0.14402132      -0.68357173      -0.65438474       1.36080646       3.14082405       3.15220046
H       -0.86902286       0.36965681       0.15615681       4.44897832      -1.35502122      -0.30813073
O        6.75386016       0.00000000       0.00000000       5.54600119       3.42800426       1.59374205
H        7.58751463      -0.34588255       0.31877473      -4.26506197       1.04461579      -1.56040974
H        6.88596335       0.94726747      -0.03827430      -1.27570819      -4.47611124      -0.03551975
6
Properties=species:S:1:pos:R:3:REF_forces:R:3 REF_energy=-17.583190106941878 label_source="analytic fixed-charge Coulomb + O-O repulsion" config_type=water_dimer_train_68 pbc="F F F"
O        0.00000000       0.00000000       0.00000000      -5.43128470       3.39084393       2.24266895
H       -0.86369694      -0.37200869       0.17851883       4.36753380       1.13656834      -1.05728238
H       -0.09951073       0.93486267       0.17989232       1.02582156      -4.42799490      -1.09723306
O        2.98392882       0.00000000       0.00000000      -1.21205633       6.19112395       2.35836190
H        2.35429067       0.22340100       0.68547767       2.66173018      -1.85685741      -3.34087739
H        3.34285977       0.84206807      -0.27986029      -1.41174450      -4.43368391       0.89436197
6
Properties=species:S:1:pos:R:3:REF_forces:R:3 REF_energy=-17.599889566299378 label_source="analytic fixed-charge Coulomb + O-O repulsion" config_type=water_dimer_train_69 pbc="F F F"
O        0.00000000       0.00000000       0.00000000       1.73430445      -4.11347009      -5.01183817
H        0.81667161      -0.48614731      -0.11375467      -3.75617402       2.58844143       1.11345413
H       -0.52658882      -0.23318322      -0.76456631       2.01041625       1.51518555       3.88877785
O        5.27958230       0.00000000       0.00000000      -6.38608755      -2.08371992       0.40577643
H        4.49052288       0.54070680       0.03540104       4.18470604      -2.01665024      -0.18597574
H        4.95584652      -0.89989970       0.04009373       2.21283483       4.11021328      -0.21019450
6
Properties=species:S:1:pos:R:3:REF_forces:R:3 REF_energy=-17.60884797749007 label_source="analytic fixed-charge Coulomb + O-O repulsion" config_type=water_dimer_train_70 pbc="F F F"
O        0.00000000       0.00000000       0.00000000       1.41093202       3.12559105      -5.78380433
H       -0.57206633       0.55313359      -0.53199172       2.26862990      -2.76613223       3.01179815
H        0.83120337      -0.01204654      -0.47453944      -3.68428232      -0.37323868       2.79202267
O        4.57217087       0.00000000       0.00000000       3.94001020       3.06608274      -4.48300957
H        4.38711278       0.78813310      -0.51071671       0.32696375      -3.74549075       2.76459615
H        5.45657396      -0.25442865      -0.26330415      -4.26225355       0.69318787       1.69839692
6
Properties=species:S:1:pos:R:3:REF_forces:R:3 REF_energy=-17.64661047636799 label_source="analytic fixed-charge Coulomb + O-O repulsion" config_type=water_dimer_train_71 pbc="F F F"
O        0.00000000       0.00000000       0.00000000       1.08030078       2.01323001       6.24050384
H        0.29417344       0.86071793       0.29809138      -1.39452629      -3.92654816      -2.03738375
H       -0.10893921      -0.50806483       0.80388694       0.33174414       1.91311558      -4.20172152
O        4.85827984       0.00000000       0.00000000      -2.65038778       1.27160368      -5.96713067
H        4.38092024      -0.60580474      -0.56688647       2.35146436       2.41660710       3.15265215
H        4.87055158       0.82445413      -0.48616523       0.28140478      -3.68800821       2.81307995
