5
Lattice="3.9 0.0 0.0 0.0 3.9 0.0 0.0 0.0 4.1" Properties=species:S:1:pos:R:3:REF_forces:R:3 REF_energy=-0.01374885802469128 REF_electric_field="0.0 0.0 -0.12" REF_polarization="0.0 0.0 -0.020461506390211846" REF_mode_displacement=-0.22 label_source="fixed-cell analytic Landau field-switching toy; not DFT or experiment" config_type=train_d_0_ez_0 pbc="T T T"
Ba       0.00000000       0.00000000       0.00000000       0.00000000       0.00000000       0.00000000
Ti       1.95000000       1.95000000       1.83000000       0.00000000       0.00000000       2.91125309
O        1.95000000       1.95000000       0.00000000       0.00000000       0.00000000       0.00000000
O        1.95000000       0.00000000       2.05000000       0.00000000       0.00000000       0.00000000
O        0.00000000       1.95000000       2.05000000       0.00000000       0.00000000       0.00000000
5
Lattice="3.9 0.0 0.0 0.0 3.9 0.0 0.0 0.0 4.1" Properties=species:S:1:pos:R:3:REF_forces:R:3 REF_energy=0.011771141975308708 REF_electric_field="0.0 0.0 -0.1" REF_polarization="0.0 0.0 -0.020461506390211846" REF_mode_displacement=-0.22 label_source="fixed-cell analytic Landau field-switching toy; not DFT or experiment" config_type=train_d_0_ez_1 pbc="T T T"
Ba       0.00000000       0.00000000       0.00000000       0.00000000       0.00000000       0.00000000
Ti       1.95000000       1.95000000       1.83000000       0.00000000       0.00000000       3.02725309
O        1.95000000       1.95000000       0.00000000       0.00000000       0.00000000       0.00000000
O        1.95000000       0.00000000       2.05000000       0.00000000       0.00000000       0.00000000
O        0.00000000       1.95000000       2.05000000       0.00000000       0.00000000       0.00000000
5
Lattice="3.9 0.0 0.0 0.0 3.9 0.0 0.0 0.0 4.1" Properties=species:S:1:pos:R:3:REF_forces:R:3 REF_energy=0.03729114197530872 REF_electric_field="0.0 0.0 -0.08" REF_polarization="0.0 0.0 -0.020461506390211846" REF_mode_displacement=-0.22 label_source="fixed-cell analytic Landau field-switching toy; not DFT or experiment" config_type=train_d_0_ez_2 pbc="T T T"
Ba       0.00000000       0.00000000       0.00000000       0.00000000       0.00000000       0.00000000
Ti       1.95000000       1.95000000       1.83000000       0.00000000       0.00000000       3.14325309
O        1.95000000       1.95000000       0.00000000       0.00000000       0.00000000       0.00000000
O        1.95000000       0.00000000       2.05000000       0.00000000       0.00000000       0.00000000
O        0.00000000       1.95000000       2.05000000       0.00000000       0.00000000       0.00000000
5
Lattice="3.9 0.0 0.0 0.0 3.9 0.0 0.0 0.0 4.1" Properties=species:S:1:pos:R:3:REF_forces:R:3 REF_energy=0.06281114197530872 REF_electric_field="0.0 0.0 -0.06" REF_polarization="0.0 0.0 -0.020461506390211846" REF_mode_displacement=-0.22 label_source="fixed-cell analytic Landau field-switching toy; not DFT or experiment" config_type=train_d_0_ez_3 pbc="T T T"
Ba       0.00000000       0.00000000       0.00000000       0.00000000       0.00000000       0.00000000
Ti       1.95000000       1.95000000       1.83000000       0.00000000       0.00000000       3.25925309
O        1.95000000       1.95000000       0.00000000       0.00000000       0.00000000       0.00000000
O        1.95000000       0.00000000       2.05000000       0.00000000       0.00000000       0.00000000
O        0.00000000       1.95000000       2.05000000       0.00000000       0.00000000       0.00000000
5
Lattice="3.9 0.0 0.0 0.0 3.9 0.0 0.0 0.0 4.1" Properties=species:S:1:pos:R:3:REF_forces:R:3 REF_energy=0.07557114197530872 REF_electric_field="0.0 0.0 -0.05" REF_polarization="0.0 0.0 -0.020461506390211846" REF_mode_displacement=-0.22 label_source="fixed-cell analytic Landau field-switching toy; not DFT or experiment" config_type=train_d_0_ez_4 pbc="T T T"
Ba       0.00000000       0.00000000       0.00000000       0.00000000       0.00000000       0.00000000
Ti       1.95000000       1.95000000       1.83000000       0.00000000       0.00000000       3.31725309
O        1.95000000       1.95000000       0.00000000       0.00000000       0.00000000       0.00000000
O        1.95000000       0.00000000       2.05000000       0.00000000       0.00000000       0.00000000
O        0.00000000       1.95000000       2.05000000       0.00000000       0.00000000       0.00000000
5
Lattice="3.9 0.0 0.0 0.0 3.9 0.0 0.0 0.0 4.1" Properties=species:S:1:pos:R:3:REF_forces:R:3 REF_energy=0.08833114197530872 REF_electric_field="0.0 0.0 -0.04" REF_polarization="0.0 0.0 -0.020461506390211846" REF_mode_displacement=-0.22 label_source="fixed-cell analytic Landau field-switching toy; not DFT or experiment" config_type=train_d_0_ez_5 pbc="T T T"
Ba       0.00000000       0.00000000       0.00000000       0.00000000       0.00000000       0.00000000
Ti       1.95000000       1.95000000       1.83000000       0.00000000       0.00000000       3.37525309
O        1.95000000       1.95000000       0.00000000       0.00000000       0.00000000       0.00000000
O        1.95000000       0.00000000       2.05000000       0.00000000       0.00000000       0.00000000
O        0.00000000       1.95000000       2.05000000       0.00000000       0.00000000       0.00000000
5
Lattice="3.9 0.0 0.0 0.0 3.9 0.0 0.0 0.0 4.1" Properties=species:S:1:pos:R:3:REF_forces:R:3 REF_energy=0.11385114197530873 REF_electric_field="0.0 0.0 -0.02" REF_polarization="0.0 0.0 -0.020461506390211846" REF_mode_displacement=-0.22 label_source="fixed-cell analytic Landau field-switching toy; not DFT or experiment" config_type=train_d_0_ez_6 pbc="T T T"
Ba       0.00000000       0.00000000       0.00000000       0.00000000       0.00000000       0.00000000
Ti       1.95000000       1.95000000       1.83000000       0.00000000       0.00000000       3.49125309
O        1.95000000       1.95000000       0.00000000       0.00000000       0.00000000       0.00000000
O        1.95000000       0.00000000       2.05000000       0.00000000       0.00000000       0.00000000
O        0.00000000       1.95000000       2.05000000       0.00000000       0.00000000       0.00000000
5
Lattice="3.9 0.0 0.0 0.0 3.9 0.0 0.0 0.0 4.1" Properties=species:S:1:pos:R:3:REF_forces:R:3 REF_energy=0.13937114197530873 REF_electric_field="0.0 0.0 0.0" REF_polarization="0.0 0.0 -0.020461506390211846" REF_mode_displacement=-0.22 label_source="fixed-cell analytic Landau field-switching toy; not DFT or experiment" config_type=train_d_0_ez_7 pbc="T T T"
Ba       0.00000000       0.00000000       0.00000000       0.00000000       0.00000000       0.00000000
Ti       1.95000000       1.95000000       1.83000000       0.00000000       0.00000000       3.60725309
O        1.95000000       1.95000000       0.00000000       0.00000000       0.00000000       0.00000000
O        1.95000000       0.00000000       2.05000000       0.00000000       0.00000000       0.00000000
O        0.00000000       1.95000000       2.05000000       0.00000000       0.00000000       0.00000000
5
Lattice="3.9 0.0 0.0 0.0 3.9 0.0 0.0 0.0 4.1" Properties=species:S:1:pos:R:3:REF_forces:R:3 REF_energy=0.16489114197530874 REF_electric_field="0.0 0.0 0.02" REF_polarization="0.0 0.0 -0.020461506390211846" REF_mode_displacement=-0.22 label_source="fixed-cell analytic Landau field-switching toy; not DFT or experiment" config_type=train_d_0_ez_8 pbc="T T T"
Ba       0.00000000       0.00000000       0.00000000       0.00000000       0.00000000       0.00000000
Ti       1.95000000       1.95000000       1.83000000       0.00000000       0.00000000       3.72325309
O        1.95000000       1.95000000       0.00000000       0.00000000       0.00000000       0.00000000
O        1.95000000       0.00000000       2.05000000       0.00000000       0.00000000       0.00000000
O        0.00000000       1.95000000       2.05000000       0.00000000       0.00000000       0.00000000
5
Lattice="3.9 0.0 0.0 0.0 3.9 0.0 0.0 0.0 4.1" Properties=species:S:1:pos:R:3:REF_forces:R:3 REF_energy=0.19041114197530873 REF_electric_field="0.0 0.0 0.04" REF_polarization="0.0 0.0 -0.020461506390211846" REF_mode_displacement=-0.22 label_source="fixed-cell analytic Landau field-switching toy; not DFT or experiment" config_type=train_d_0_ez_9 pbc="T T T"
Ba       0.00000000       0.00000000       0.00000000       0.00000000       0.00000000       0.00000000
Ti       1.95000000       1.95000000       1.83000000       0.00000000       0.00000000       3.83925309
O        1.95000000       1.95000000       0.00000000       0.00000000       0.00000000       0.00000000
O        1.95000000       0.00000000       2.05000000       0.00000000       0.00000000       0.00000000
O        0.00000000       1.95000000       2.05000000       0.00000000       0.00000000       0.00000000
5
Lattice="3.9 0.0 0.0 0.0 3.9 0.0 0.0 0.0 4.1" Properties=species:S:1:pos:R:3:REF_forces:R:3 REF_energy=0.20317114197530872 REF_electric_field="0.0 0.0 0.05" REF_polarization="0.0 0.0 -0.020461506390211846" REF_mode_displacement=-0.22 label_source="fixed-cell analytic Landau field-switching toy; not DFT or experiment" config_type=train_d_0_ez_10 pbc="T T T"
Ba       0.00000000       0.00000000       0.00000000       0.00000000       0.00000000       0.00000000
Ti       1.95000000       1.95000000       1.83000000       0.00000000       0.00000000       3.89725309
O        1.95000000       1.95000000       0.00000000       0.00000000       0.00000000       0.00000000
O        1.95000000       0.00000000       2.05000000       0.00000000       0.00000000       0.00000000
O        0.00000000       1.95000000       2.05000000       0.00000000       0.00000000       0.00000000
5
Lattice="3.9 0.0 0.0 0.0 3.9 0.0 0.0 0.0 4.1" Properties=species:S:1:pos:R:3:REF_forces:R:3 REF_energy=0.21593114197530872 REF_electric_field="0.0 0.0 0.06" REF_polarization="0.0 0.0 -0.020461506390211846" REF_mode_displacement=-0.22 label_source="fixed-cell analytic Landau field-switching toy; not DFT or experiment" config_type=train_d_0_ez_11 pbc="T T T"
Ba       0.00000000       0.00000000       0.00000000       0.00000000       0.00000000       0.00000000
Ti       1.95000000       1.95000000       1.83000000       0.00000000       0.00000000       3.95525309
O        1.95000000       1.95000000       0.00000000       0.00000000       0.00000000       0.00000000
O        1.95000000       0.00000000       2.05000000       0.00000000       0.00000000       0.00000000
O        0.00000000       1.95000000       2.05000000       0.00000000       0.00000000       0.00000000
5
Lattice="3.9 0.0 0.0 0.0 3.9 0.0 0.0 0.0 4.1" Properties=species:S:1:pos:R:3:REF_forces:R:3 REF_energy=0.24145114197530873 REF_electric_field="0.0 0.0 0.08" REF_polarization="0.0 0.0 -0.020461506390211846" REF_mode_displacement=-0.22 label_source="fixed-cell analytic Landau field-switching toy; not DFT or experiment" config_type=train_d_0_ez_12 pbc="T T T"
Ba       0.00000000       0.00000000       0.00000000       0.00000000       0.00000000       0.00000000
Ti       1.95000000       1.95000000       1.83000000       0.00000000       0.00000000       4.07125309
O        1.95000000       1.95000000       0.00000000       0.00000000       0.00000000       0.00000000
O        1.95000000       0.00000000       2.05000000       0.00000000       0.00000000       0.00000000
O        0.00000000       1.95000000       2.05000000       0.00000000       0.00000000       0.00000000
5
Lattice="3.9 0.0 0.0 0.0 3.9 0.0 0.0 0.0 4.1" Properties=species:S:1:pos:R:3:REF_forces:R:3 REF_energy=0.26697114197530875 REF_electric_field="0.0 0.0 0.1" REF_polarization="0.0 0.0 -0.020461506390211846" REF_mode_displacement=-0.22 label_source="fixed-cell analytic Landau field-switching toy; not DFT or experiment" config_type=train_d_0_ez_13 pbc="T T T"
Ba       0.00000000       0.00000000       0.00000000       0.00000000       0.00000000       0.00000000
Ti       1.95000000       1.95000000       1.83000000       0.00000000       0.00000000       4.18725309
O        1.95000000       1.95000000       0.00000000       0.00000000       0.00000000       0.00000000
O        1.95000000       0.00000000       2.05000000       0.00000000       0.00000000       0.00000000
O        0.00000000       1.95000000       2.05000000       0.00000000       0.00000000       0.00000000
5
Lattice="3.9 0.0 0.0 0.0 3.9 0.0 0.0 0.0 4.1" Properties=species:S:1:pos:R:3:REF_forces:R:3 REF_energy=0.29249114197530873 REF_electric_field="0.0 0.0 0.12" REF_polarization="0.0 0.0 -0.020461506390211846" REF_mode_displacement=-0.22 label_source="fixed-cell analytic Landau field-switching toy; not DFT or experiment" config_type=train_d_0_ez_14 pbc="T T T"
Ba       0.00000000       0.00000000       0.00000000       0.00000000       0.00000000       0.00000000
Ti       1.95000000       1.95000000       1.83000000       0.00000000       0.00000000       4.30325309
O        1.95000000       1.95000000       0.00000000       0.00000000       0.00000000       0.00000000
O        1.95000000       0.00000000       2.05000000       0.00000000       0.00000000       0.00000000
O        0.00000000       1.95000000       2.05000000       0.00000000       0.00000000       0.00000000
5
Lattice="3.9 0.0 0.0 0.0 3.9 0.0 0.0 0.0 4.1" Properties=species:S:1:pos:R:3:REF_forces:R:3 REF_energy=-0.06757370628160032 REF_electric_field="0.0 0.0 -0.12" REF_polarization="0.0 0.0 -0.01818800568018831" REF_mode_displacement=-0.19555555555555557 label_source="fixed-cell analytic Landau field-switching toy; not DFT or experiment" config_type=train_d_1_ez_0 pbc="T T T"
Ba       0.00000000       0.00000000       0.00000000       0.00000000       0.00000000       0.00000000
Ti       1.95000000       1.95000000       1.85444444       0.00000000       0.00000000       1.55247161
O        1.95000000       1.95000000       0.00000000       0.00000000       0.00000000       0.00000000
O        1.95000000       0.00000000       2.05000000       0.00000000       0.00000000       0.00000000
O        0.00000000       1.95000000       2.05000000       0.00000000       0.00000000       0.00000000
5
Lattice="3.9 0.0 0.0 0.0 3.9 0.0 0.0 0.0 4.1" Properties=species:S:1:pos:R:3:REF_forces:R:3 REF_energy=-0.0448892618371559 REF_electric_field="0.0 0.0 -0.1" REF_polarization="0.0 0.0 -0.01818800568018831" REF_mode_displacement=-0.19555555555555557 label_source="fixed-cell analytic Landau field-switching toy; not DFT or experiment" config_type=train_d_1_ez_1 pbc="T T T"
Ba       0.00000000       0.00000000       0.00000000       0.00000000       0.00000000       0.00000000
Ti       1.95000000       1.95000000       1.85444444       0.00000000       0.00000000       1.66847161
O        1.95000000       1.95000000       0.00000000       0.00000000       0.00000000       0.00000000
O        1.95000000       0.00000000       2.05000000       0.00000000       0.00000000       0.00000000
O        0.00000000       1.95000000       2.05000000       0.00000000       0.00000000       0.00000000
5
Lattice="3.9 0.0 0.0 0.0 3.9 0.0 0.0 0.0 4.1" Properties=species:S:1:pos:R:3:REF_forces:R:3 REF_energy=-0.02220481739271145 REF_electric_field="0.0 0.0 -0.08" REF_polarization="0.0 0.0 -0.01818800568018831" REF_mode_displacement=-0.19555555555555557 label_source="fixed-cell analytic Landau field-switching toy; not DFT or experiment" config_type=train_d_1_ez_2 pbc="T T T"
Ba       0.00000000       0.00000000       0.00000000       0.00000000       0.00000000       0.00000000
Ti       1.95000000       1.95000000       1.85444444       0.00000000       0.00000000       1.78447161
O        1.95000000       1.95000000       0.00000000       0.00000000       0.00000000       0.00000000
O        1.95000000       0.00000000       2.05000000       0.00000000       0.00000000       0.00000000
O        0.00000000       1.95000000       2.05000000       0.00000000       0.00000000       0.00000000
5
Lattice="3.9 0.0 0.0 0.0 3.9 0.0 0.0 0.0 4.1" Properties=species:S:1:pos:R:3:REF_forces:R:3 REF_energy=0.00047962705173300313 REF_electric_field="0.0 0.0 -0.06" REF_polarization="0.0 0.0 -0.01818800568018831" REF_mode_displacement=-0.19555555555555557 label_source="fixed-cell analytic Landau field-switching toy; not DFT or experiment" config_type=train_d_1_ez_3 pbc="T T T"
Ba       0.00000000       0.00000000       0.00000000       0.00000000       0.00000000       0.00000000
Ti       1.95000000       1.95000000       1.85444444       0.00000000       0.00000000       1.90047161
O        1.95000000       1.95000000       0.00000000       0.00000000       0.00000000       0.00000000
O        1.95000000       0.00000000       2.05000000       0.00000000       0.00000000       0.00000000
O        0.00000000       1.95000000       2.05000000       0.00000000       0.00000000       0.00000000
5
Lattice="3.9 0.0 0.0 0.0 3.9 0.0 0.0 0.0 4.1" Properties=species:S:1:pos:R:3:REF_forces:R:3 REF_energy=0.011821849273955215 REF_electric_field="0.0 0.0 -0.05" REF_polarization="0.0 0.0 -0.01818800568018831" REF_mode_displacement=-0.19555555555555557 label_source="fixed-cell analytic Landau field-switching toy; not DFT or experiment" config_type=train_d_1_ez_4 pbc="T T T"
Ba       0.00000000       0.00000000       0.00000000       0.00000000       0.00000000       0.00000000
Ti       1.95000000       1.95000000       1.85444444       0.00000000       0.00000000       1.95847161
O        1.95000000       1.95000000       0.00000000       0.00000000       0.00000000       0.00000000
O        1.95000000       0.00000000       2.05000000       0.00000000       0.00000000       0.00000000
O        0.00000000       1.95000000       2.05000000       0.00000000       0.00000000       0.00000000
5
Lattice="3.9 0.0 0.0 0.0 3.9 0.0 0.0 0.0 4.1" Properties=species:S:1:pos:R:3:REF_forces:R:3 REF_energy=0.02316407149617744 REF_electric_field="0.0 0.0 -0.04" REF_polarization="0.0 0.0 -0.01818800568018831" REF_mode_displacement=-0.19555555555555557 label_source="fixed-cell analytic Landau field-switching toy; not DFT or experiment" config_type=train_d_1_ez_5 pbc="T T T"
Ba       0.00000000       0.00000000       0.00000000       0.00000000       0.00000000       0.00000000
Ti       1.95000000       1.95000000       1.85444444       0.00000000       0.00000000       2.01647161
O        1.95000000       1.95000000       0.00000000       0.00000000       0.00000000       0.00000000
O        1.95000000       0.00000000       2.05000000       0.00000000       0.00000000       0.00000000
O        0.00000000       1.95000000       2.05000000       0.00000000       0.00000000       0.00000000
5
Lattice="3.9 0.0 0.0 0.0 3.9 0.0 0.0 0.0 4.1" Properties=species:S:1:pos:R:3:REF_forces:R:3 REF_energy=0.045848515940621885 REF_electric_field="0.0 0.0 -0.02" REF_polarization="0.0 0.0 -0.01818800568018831" REF_mode_displacement=-0.19555555555555557 label_source="fixed-cell analytic Landau field-switching toy; not DFT or experiment" config_type=train_d_1_ez_6 pbc="T T T"
Ba       0.00000000       0.00000000       0.00000000       0.00000000       0.00000000       0.00000000
Ti       1.95000000       1.95000000       1.85444444       0.00000000       0.00000000       2.13247161
O        1.95000000       1.95000000       0.00000000       0.00000000       0.00000000       0.00000000
O        1.95000000       0.00000000       2.05000000       0.00000000       0.00000000       0.00000000
O        0.00000000       1.95000000       2.05000000       0.00000000       0.00000000       0.00000000
5
Lattice="3.9 0.0 0.0 0.0 3.9 0.0 0.0 0.0 4.1" Properties=species:S:1:pos:R:3:REF_forces:R:3 REF_energy=0.06853296038506633 REF_electric_field="0.0 0.0 0.0" REF_polarization="0.0 0.0 -0.01818800568018831" REF_mode_displacement=-0.19555555555555557 label_source="fixed-cell analytic Landau field-switching toy; not DFT or experiment" config_type=train_d_1_ez_7 pbc="T T T"
Ba       0.00000000       0.00000000       0.00000000       0.00000000       0.00000000       0.00000000
Ti       1.95000000       1.95000000       1.85444444       0.00000000       0.00000000       2.24847161
O        1.95000000       1.95000000       0.00000000       0.00000000       0.00000000       0.00000000
O        1.95000000       0.00000000       2.05000000       0.00000000       0.00000000       0.00000000
O        0.00000000       1.95000000       2.05000000       0.00000000       0.00000000       0.00000000
5
Lattice="3.9 0.0 0.0 0.0 3.9 0.0 0.0 0.0 4.1" Properties=species:S:1:pos:R:3:REF_forces:R:3 REF_energy=0.09121740482951077 REF_electric_field="0.0 0.0 0.02" REF_polarization="0.0 0.0 -0.01818800568018831" REF_mode_displacement=-0.19555555555555557 label_source="fixed-cell analytic Landau field-switching toy; not DFT or experiment" config_type=train_d_1_ez_8 pbc="T T T"
Ba       0.00000000       0.00000000       0.00000000       0.00000000       0.00000000       0.00000000
Ti       1.95000000       1.95000000       1.85444444       0.00000000       0.00000000       2.36447161
O        1.95000000       1.95000000       0.00000000       0.00000000       0.00000000       0.00000000
O        1.95000000       0.00000000       2.05000000       0.00000000       0.00000000       0.00000000
O        0.00000000       1.95000000       2.05000000       0.00000000       0.00000000       0.00000000
5
Lattice="3.9 0.0 0.0 0.0 3.9 0.0 0.0 0.0 4.1" Properties=species:S:1:pos:R:3:REF_forces:R:3 REF_energy=0.11390184927395522 REF_electric_field="0.0 0.0 0.04" REF_polarization="0.0 0.0 -0.01818800568018831" REF_mode_displacement=-0.19555555555555557 label_source="fixed-cell analytic Landau field-switching toy; not DFT or experiment" config_type=train_d_1_ez_9 pbc="T T T"
Ba       0.00000000       0.00000000       0.00000000       0.00000000       0.00000000       0.00000000
Ti       1.95000000       1.95000000       1.85444444       0.00000000       0.00000000       2.48047161
O        1.95000000       1.95000000       0.00000000       0.00000000       0.00000000       0.00000000
O        1.95000000       0.00000000       2.05000000       0.00000000       0.00000000       0.00000000
O        0.00000000       1.95000000       2.05000000       0.00000000       0.00000000       0.00000000
5
Lattice="3.9 0.0 0.0 0.0 3.9 0.0 0.0 0.0 4.1" Properties=species:S:1:pos:R:3:REF_forces:R:3 REF_energy=0.12524407149617744 REF_electric_field="0.0 0.0 0.05" REF_polarization="0.0 0.0 -0.01818800568018831" REF_mode_displacement=-0.19555555555555557 label_source="fixed-cell analytic Landau field-switching toy; not DFT or experiment" config_type=train_d_1_ez_10 pbc="T T T"
Ba       0.00000000       0.00000000       0.00000000       0.00000000       0.00000000       0.00000000
Ti       1.95000000       1.95000000       1.85444444       0.00000000       0.00000000       2.53847161
O        1.95000000       1.95000000       0.00000000       0.00000000       0.00000000       0.00000000
O        1.95000000       0.00000000       2.05000000       0.00000000       0.00000000       0.00000000
O        0.00000000       1.95000000       2.05000000       0.00000000       0.00000000       0.00000000
5
Lattice="3.9 0.0 0.0 0.0 3.9 0.0 0.0 0.0 4.1" Properties=species:S:1:pos:R:3:REF_forces:R:3 REF_energy=0.13658629371839964 REF_electric_field="0.0 0.0 0.06" REF_polarization="0.0 0.0 -0.01818800568018831" REF_mode_displacement=-0.19555555555555557 label_source="fixed-cell analytic Landau field-switching toy; not DFT or experiment" config_type=train_d_1_ez_11 pbc="T T T"
Ba       0.00000000       0.00000000       0.00000000       0.00000000       0.00000000       0.00000000
Ti       1.95000000       1.95000000       1.85444444       0.00000000       0.00000000       2.59647161
O        1.95000000       1.95000000       0.00000000       0.00000000       0.00000000       0.00000000
O        1.95000000       0.00000000       2.05000000       0.00000000       0.00000000       0.00000000
O        0.00000000       1.95000000       2.05000000       0.00000000       0.00000000       0.00000000
5
Lattice="3.9 0.0 0.0 0.0 3.9 0.0 0.0 0.0 4.1" Properties=species:S:1:pos:R:3:REF_forces:R:3 REF_energy=0.1592707381628441 REF_electric_field="0.0 0.0 0.08" REF_polarization="0.0 0.0 -0.01818800568018831" REF_mode_displacement=-0.19555555555555557 label_source="fixed-cell analytic Landau field-switching toy; not DFT or experiment" config_type=train_d_1_ez_12 pbc="T T T"
Ba       0.00000000       0.00000000       0.00000000       0.00000000       0.00000000       0.00000000
Ti       1.95000000       1.95000000       1.85444444       0.00000000       0.00000000       2.71247161
O        1.95000000       1.95000000       0.00000000       0.00000000       0.00000000       0.00000000
O        1.95000000       0.00000000       2.05000000       0.00000000       0.00000000       0.00000000
O        0.00000000       1.95000000       2.05000000       0.00000000       0.00000000       0.00000000
5
Lattice="3.9 0.0 0.0 0.0 3.9 0.0 0.0 0.0 4.1" Properties=species:S:1:pos:R:3:REF_forces:R:3 REF_energy=0.18195518260728855 REF_electric_field="0.0 0.0 0.1" REF_polarization="0.0 0.0 -0.01818800568018831" REF_mode_displacement=-0.19555555555555557 label_source="fixed-cell analytic Landau field-switching toy; not DFT or experiment" config_type=train_d_1_ez_13 pbc="T T T"
Ba       0.00000000       0.00000000       0.00000000       0.00000000       0.00000000       0.00000000
Ti       1.95000000       1.95000000       1.85444444       0.00000000       0.00000000       2.82847161
O        1.95000000       1.95000000       0.00000000       0.00000000       0.00000000       0.00000000
O        1.95000000       0.00000000       2.05000000       0.00000000       0.00000000       0.00000000
O        0.00000000       1.95000000       2.05000000       0.00000000       0.00000000       0.00000000
5
Lattice="3.9 0.0 0.0 0.0 3.9 0.0 0.0 0.0 4.1" Properties=species:S:1:pos:R:3:REF_forces:R:3 REF_energy=0.204639627051733 REF_electric_field="0.0 0.0 0.12" REF_polarization="0.0 0.0 -0.01818800568018831" REF_mode_displacement=-0.19555555555555557 label_source="fixed-cell analytic Landau field-switching toy; not DFT or experiment" config_type=train_d_1_ez_14 pbc="T T T"
Ba       0.00000000       0.00000000       0.00000000       0.00000000       0.00000000       0.00000000
Ti       1.95000000       1.95000000       1.85444444       0.00000000       0.00000000       2.94447161
O        1.95000000       1.95000000       0.00000000       0.00000000       0.00000000       0.00000000
O        1.95000000       0.00000000       2.05000000       0.00000000       0.00000000       0.00000000
O        0.00000000       1.95000000       2.05000000       0.00000000       0.00000000       0.00000000
5
Lattice="3.9 0.0 0.0 0.0 3.9 0.0 0.0 0.0 4.1" Properties=species:S:1:pos:R:3:REF_forces:R:3 REF_energy=-0.09240243243840802 REF_electric_field="0.0 0.0 -0.12" REF_polarization="0.0 0.0 -0.015914504970164767" REF_mode_displacement=-0.1711111111111111 label_source="fixed-cell analytic Landau field-switching toy; not DFT or experiment" config_type=train_d_2_ez_0 pbc="T T T"
Ba       0.00000000       0.00000000       0.00000000       0.00000000       0.00000000       0.00000000
Ti       1.95000000       1.95000000       1.87888889       0.00000000       0.00000000       0.53179916
O        1.95000000       1.95000000       0.00000000       0.00000000       0.00000000       0.00000000
O        1.95000000       0.00000000       2.05000000       0.00000000       0.00000000       0.00000000
O        0.00000000       1.95000000       2.05000000       0.00000000       0.00000000       0.00000000
5
Lattice="3.9 0.0 0.0 0.0 3.9 0.0 0.0 0.0 4.1" Properties=species:S:1:pos:R:3:REF_forces:R:3 REF_energy=-0.07255354354951915 REF_electric_field="0.0 0.0 -0.1" REF_polarization="0.0 0.0 -0.015914504970164767" REF_mode_displacement=-0.1711111111111111 label_source="fixed-cell analytic Landau field-switching toy; not DFT or experiment" config_type=train_d_2_ez_1 pbc="T T T"
Ba       0.00000000       0.00000000       0.00000000       0.00000000       0.00000000       0.00000000
Ti       1.95000000       1.95000000       1.87888889       0.00000000       0.00000000       0.64779916
O        1.95000000       1.95000000       0.00000000       0.00000000       0.00000000       0.00000000
O        1.95000000       0.00000000       2.05000000       0.00000000       0.00000000       0.00000000
O        0.00000000       1.95000000       2.05000000       0.00000000       0.00000000       0.00000000
5
Lattice="3.9 0.0 0.0 0.0 3.9 0.0 0.0 0.0 4.1" Properties=species:S:1:pos:R:3:REF_forces:R:3 REF_energy=-0.05270465466063026 REF_electric_field="0.0 0.0 -0.08" REF_polarization="0.0 0.0 -0.015914504970164767" REF_mode_displacement=-0.1711111111111111 label_source="fixed-cell analytic Landau field-switching toy; not DFT or experiment" config_type=train_d_2_ez_2 pbc="T T T"
Ba       0.00000000       0.00000000       0.00000000       0.00000000       0.00000000       0.00000000
Ti       1.95000000       1.95000000       1.87888889       0.00000000       0.00000000       0.76379916
O        1.95000000       1.95000000       0.00000000       0.00000000       0.00000000       0.00000000
O        1.95000000       0.00000000       2.05000000       0.00000000       0.00000000       0.00000000
O        0.00000000       1.95000000       2.05000000       0.00000000       0.00000000       0.00000000
5
Lattice="3.9 0.0 0.0 0.0 3.9 0.0 0.0 0.0 4.1" Properties=species:S:1:pos:R:3:REF_forces:R:3 REF_energy=-0.03285576577174137 REF_electric_field="0.0 0.0 -0.06" REF_polarization="0.0 0.0 -0.015914504970164767" REF_mode_displacement=-0.1711111111111111 label_source="fixed-cell analytic Landau field-switching toy; not DFT or experiment" config_type=train_d_2_ez_3 pbc="T T T"
Ba       0.00000000       0.00000000       0.00000000       0.00000000       0.00000000       0.00000000
Ti       1.95000000       1.95000000       1.87888889       0.00000000       0.00000000       0.87979916
O        1.95000000       1.95000000       0.00000000       0.00000000       0.00000000       0.00000000
O        1.95000000       0.00000000       2.05000000       0.00000000       0.00000000       0.00000000
O        0.00000000       1.95000000       2.05000000       0.00000000       0.00000000       0.00000000
5
Lattice="3.9 0.0 0.0 0.0 3.9 0.0 0.0 0.0 4.1" Properties=species:S:1:pos:R:3:REF_forces:R:3 REF_energy=-0.02293132132729693 REF_electric_field="0.0 0.0 -0.05" REF_polarization="0.0 0.0 -0.015914504970164767" REF_mode_displacement=-0.1711111111111111 label_source="fixed-cell analytic Landau field-switching toy; not DFT or experiment" config_type=train_d_2_ez_4 pbc="T T T"
Ba       0.00000000       0.00000000       0.00000000       0.00000000       0.00000000       0.00000000
Ti       1.95000000       1.95000000       1.87888889       0.00000000       0.00000000       0.93779916
O        1.95000000       1.95000000       0.00000000       0.00000000       0.00000000       0.00000000
O        1.95000000       0.00000000       2.05000000       0.00000000       0.00000000       0.00000000
O        0.00000000       1.95000000       2.05000000       0.00000000       0.00000000       0.00000000
5
Lattice="3.9 0.0 0.0 0.0 3.9 0.0 0.0 0.0 4.1" Properties=species:S:1:pos:R:3:REF_forces:R:3 REF_energy=-0.013006876882852486 REF_electric_field="0.0 0.0 -0.04" REF_polarization="0.0 0.0 -0.015914504970164767" REF_mode_displacement=-0.1711111111111111 label_source="fixed-cell analytic Landau field-switching toy; not DFT or experiment" config_type=train_d_2_ez_5 pbc="T T T"
Ba       0.00000000       0.00000000       0.00000000       0.00000000       0.00000000       0.00000000
Ti       1.95000000       1.95000000       1.87888889       0.00000000       0.00000000       0.99579916
O        1.95000000       1.95000000       0.00000000       0.00000000       0.00000000       0.00000000
O        1.95000000       0.00000000       2.05000000       0.00000000       0.00000000       0.00000000
O        0.00000000       1.95000000       2.05000000       0.00000000       0.00000000       0.00000000
5
Lattice="3.9 0.0 0.0 0.0 3.9 0.0 0.0 0.0 4.1" Properties=species:S:1:pos:R:3:REF_forces:R:3 REF_energy=0.006842012006036402 REF_electric_field="0.0 0.0 -0.02" REF_polarization="0.0 0.0 -0.015914504970164767" REF_mode_displacement=-0.1711111111111111 label_source="fixed-cell analytic Landau field-switching toy; not DFT or experiment" config_type=train_d_2_ez_6 pbc="T T T"
Ba       0.00000000       0.00000000       0.00000000       0.00000000       0.00000000       0.00000000
Ti       1.95000000       1.95000000       1.87888889       0.00000000       0.00000000       1.11179916
O        1.95000000       1.95000000       0.00000000       0.00000000       0.00000000       0.00000000
O        1.95000000       0.00000000       2.05000000       0.00000000       0.00000000       0.00000000
O        0.00000000       1.95000000       2.05000000       0.00000000       0.00000000       0.00000000
5
Lattice="3.9 0.0 0.0 0.0 3.9 0.0 0.0 0.0 4.1" Properties=species:S:1:pos:R:3:REF_forces:R:3 REF_energy=0.02669090089492529 REF_electric_field="0.0 0.0 0.0" REF_polarization="0.0 0.0 -0.015914504970164767" REF_mode_displacement=-0.1711111111111111 label_source="fixed-cell analytic Landau field-switching toy; not DFT or experiment" config_type=train_d_2_ez_7 pbc="T T T"
Ba       0.00000000       0.00000000       0.00000000       0.00000000       0.00000000       0.00000000
Ti       1.95000000       1.95000000       1.87888889       0.00000000       0.00000000       1.22779916
O        1.95000000       1.95000000       0.00000000       0.00000000       0.00000000       0.00000000
O        1.95000000       0.00000000       2.05000000       0.00000000       0.00000000       0.00000000
O        0.00000000       1.95000000       2.05000000       0.00000000       0.00000000       0.00000000
5
Lattice="3.9 0.0 0.0 0.0 3.9 0.0 0.0 0.0 4.1" Properties=species:S:1:pos:R:3:REF_forces:R:3 REF_energy=0.04653978978381418 REF_electric_field="0.0 0.0 0.02" REF_polarization="0.0 0.0 -0.015914504970164767" REF_mode_displacement=-0.1711111111111111 label_source="fixed-cell analytic Landau field-switching toy; not DFT or experiment" config_type=train_d_2_ez_8 pbc="T T T"
Ba       0.00000000       0.00000000       0.00000000       0.00000000       0.00000000       0.00000000
Ti       1.95000000       1.95000000       1.87888889       0.00000000       0.00000000       1.34379916
O        1.95000000       1.95000000       0.00000000       0.00000000       0.00000000       0.00000000
O        1.95000000       0.00000000       2.05000000       0.00000000       0.00000000       0.00000000
O        0.00000000       1.95000000       2.05000000       0.00000000       0.00000000       0.00000000
5
Lattice="3.9 0.0 0.0 0.0 3.9 0.0 0.0 0.0 4.1" Properties=species:S:1:pos:R:3:REF_forces:R:3 REF_energy=0.06638867867270307 REF_electric_field="0.0 0.0 0.04" REF_polarization="0.0 0.0 -0.015914504970164767" REF_mode_displacement=-0.1711111111111111 label_source="fixed-cell analytic Landau field-switching toy; not DFT or experiment" config_type=train_d_2_ez_9 pbc="T T T"
Ba       0.00000000       0.00000000       0.00000000       0.00000000       0.00000000       0.00000000
Ti       1.95000000       1.95000000       1.87888889       0.00000000       0.00000000       1.45979916
O        1.95000000       1.95000000       0.00000000       0.00000000       0.00000000       0.00000000
O        1.95000000       0.00000000       2.05000000       0.00000000       0.00000000       0.00000000
O        0.00000000       1.95000000       2.05000000       0.00000000       0.00000000       0.00000000
5
Lattice="3.9 0.0 0.0 0.0 3.9 0.0 0.0 0.0 4.1" Properties=species:S:1:pos:R:3:REF_forces:R:3 REF_energy=0.07631312311714751 REF_electric_field="0.0 0.0 0.05" REF_polarization="0.0 0.0 -0.015914504970164767" REF_mode_displacement=-0.1711111111111111 label_source="fixed-cell analytic Landau field-switching toy; not DFT or experiment" config_type=train_d_2_ez_10 pbc="T T T"
Ba       0.00000000       0.00000000       0.00000000       0.00000000       0.00000000       0.00000000
Ti       1.95000000       1.95000000       1.87888889       0.00000000       0.00000000       1.51779916
O        1.95000000       1.95000000       0.00000000       0.00000000       0.00000000       0.00000000
O        1.95000000       0.00000000       2.05000000       0.00000000       0.00000000       0.00000000
O        0.00000000       1.95000000       2.05000000       0.00000000       0.00000000       0.00000000
5
Lattice="3.9 0.0 0.0 0.0 3.9 0.0 0.0 0.0 4.1" Properties=species:S:1:pos:R:3:REF_forces:R:3 REF_energy=0.08623756756159195 REF_electric_field="0.0 0.0 0.06" REF_polarization="0.0 0.0 -0.015914504970164767" REF_mode_displacement=-0.1711111111111111 label_source="fixed-cell analytic Landau field-switching toy; not DFT or experiment" config_type=train_d_2_ez_11 pbc="T T T"
Ba       0.00000000       0.00000000       0.00000000       0.00000000       0.00000000       0.00000000
Ti       1.95000000       1.95000000       1.87888889       0.00000000       0.00000000       1.57579916
O        1.95000000       1.95000000       0.00000000       0.00000000       0.00000000       0.00000000
O        1.95000000       0.00000000       2.05000000       0.00000000       0.00000000       0.00000000
O        0.00000000       1.95000000       2.05000000       0.00000000       0.00000000       0.00000000
5
Lattice="3.9 0.0 0.0 0.0 3.9 0.0 0.0 0.0 4.1" Properties=species:S:1:pos:R:3:REF_forces:R:3 REF_energy=0.10608645645048084 REF_electric_field="0.0 0.0 0.08" REF_polarization="0.0 0.0 -0.015914504970164767" REF_mode_displacement=-0.1711111111111111 label_source="fixed-cell analytic Landau field-switching toy; not DFT or experiment" config_type=train_d_2_ez_12 pbc="T T T"
Ba       0.00000000       0.00000000       0.00000000       0.00000000       0.00000000       0.00000000
Ti       1.95000000       1.95000000       1.87888889       0.00000000       0.00000000       1.69179916
O        1.95000000       1.95000000       0.00000000       0.00000000       0.00000000       0.00000000
O        1.95000000       0.00000000       2.05000000       0.00000000       0.00000000       0.00000000
O        0.00000000       1.95000000       2.05000000       0.00000000       0.00000000       0.00000000
5
Lattice="3.9 0.0 0.0 0.0 3.9 0.0 0.0 0.0 4.1" Properties=species:S:1:pos:R:3:REF_forces:R:3 REF_energy=0.12593534533936973 REF_electric_field="0.0 0.0 0.1" REF_polarization="0.0 0.0 -0.015914504970164767" REF_mode_displacement=-0.1711111111111111 label_source="fixed-cell analytic Landau field-switching toy; not DFT or experiment" config_type=train_d_2_ez_13 pbc="T T T"
Ba       0.00000000       0.00000000       0.00000000       0.00000000       0.00000000       0.00000000
Ti       1.95000000       1.95000000       1.87888889       0.00000000       0.00000000       1.80779916
O        1.95000000       1.95000000       0.00000000       0.00000000       0.00000000       0.00000000
O        1.95000000       0.00000000       2.05000000       0.00000000       0.00000000       0.00000000
O        0.00000000       1.95000000       2.05000000       0.00000000       0.00000000       0.00000000
5
Lattice="3.9 0.0 0.0 0.0 3.9 0.0 0.0 0.0 4.1" Properties=species:S:1:pos:R:3:REF_forces:R:3 REF_energy=0.1457842342282586 REF_electric_field="0.0 0.0 0.12" REF_polarization="0.0 0.0 -0.015914504970164767" REF_mode_displacement=-0.1711111111111111 label_source="fixed-cell analytic Landau field-switching toy; not DFT or experiment" config_type=train_d_2_ez_14 pbc="T T T"
Ba       0.00000000       0.00000000       0.00000000       0.00000000       0.00000000       0.00000000
Ti       1.95000000       1.95000000       1.87888889       0.00000000       0.00000000       1.92379916
O        1.95000000       1.95000000       0.00000000       0.00000000       0.00000000       0.00000000
O        1.95000000       0.00000000       2.05000000       0.00000000       0.00000000       0.00000000
O        0.00000000       1.95000000       2.05000000       0.00000000       0.00000000       0.00000000
5
Lattice="3.9 0.0 0.0 0.0 3.9 0.0 0.0 0.0 4.1" Properties=species:S:1:pos:R:3:REF_forces:R:3 REF_energy=-0.0959833683889651 REF_electric_field="0.0 0.0 -0.12" REF_polarization="0.0 0.0 -0.013641004260141231" REF_mode_displacement=-0.14666666666666667 label_source="fixed-cell analytic Landau field-switching toy; not DFT or experiment" config_type=train_d_3_ez_0 pbc="T T T"
Ba       0.00000000       0.00000000       0.00000000       0.00000000       0.00000000       0.00000000
Ti       1.95000000       1.95000000       1.90333333       0.00000000       0.00000000      -0.19302789
O        1.95000000       1.95000000       0.00000000       0.00000000       0.00000000       0.00000000
O        1.95000000       0.00000000       2.05000000       0.00000000       0.00000000       0.00000000
O        0.00000000       1.95000000       2.05000000       0.00000000       0.00000000       0.00000000
5
Lattice="3.9 0.0 0.0 0.0 3.9 0.0 0.0 0.0 4.1" Properties=species:S:1:pos:R:3:REF_forces:R:3 REF_energy=-0.07897003505563177 REF_electric_field="0.0 0.0 -0.1" REF_polarization="0.0 0.0 -0.013641004260141231" REF_mode_displacement=-0.14666666666666667 label_source="fixed-cell analytic Landau field-switching toy; not DFT or experiment" config_type=train_d_3_ez_1 pbc="T T T"
Ba       0.00000000       0.00000000       0.00000000       0.00000000       0.00000000       0.00000000
Ti       1.95000000       1.95000000       1.90333333       0.00000000       0.00000000      -0.07702789
O        1.95000000       1.95000000       0.00000000       0.00000000       0.00000000       0.00000000
O        1.95000000       0.00000000       2.05000000       0.00000000       0.00000000       0.00000000
O        0.00000000       1.95000000       2.05000000       0.00000000       0.00000000       0.00000000
5
Lattice="3.9 0.0 0.0 0.0 3.9 0.0 0.0 0.0 4.1" Properties=species:S:1:pos:R:3:REF_forces:R:3 REF_energy=-0.06195670172229843 REF_electric_field="0.0 0.0 -0.08" REF_polarization="0.0 0.0 -0.013641004260141231" REF_mode_displacement=-0.14666666666666667 label_source="fixed-cell analytic Landau field-switching toy; not DFT or experiment" config_type=train_d_3_ez_2 pbc="T T T"
Ba       0.00000000       0.00000000       0.00000000       0.00000000       0.00000000       0.00000000
Ti       1.95000000       1.95000000       1.90333333       0.00000000       0.00000000       0.03897211
O        1.95000000       1.95000000       0.00000000       0.00000000       0.00000000       0.00000000
O        1.95000000       0.00000000       2.05000000       0.00000000       0.00000000       0.00000000
O        0.00000000       1.95000000       2.05000000       0.00000000       0.00000000       0.00000000
5
Lattice="3.9 0.0 0.0 0.0 3.9 0.0 0.0 0.0 4.1" Properties=species:S:1:pos:R:3:REF_forces:R:3 REF_energy=-0.044943368388965094 REF_electric_field="0.0 0.0 -0.06" REF_polarization="0.0 0.0 -0.013641004260141231" REF_mode_displacement=-0.14666666666666667 label_source="fixed-cell analytic Landau field-switching toy; not DFT or experiment" config_type=train_d_3_ez_3 pbc="T T T"
Ba       0.00000000       0.00000000       0.00000000       0.00000000       0.00000000       0.00000000
Ti       1.95000000       1.95000000       1.90333333       0.00000000       0.00000000       0.15497211
O        1.95000000       1.95000000       0.00000000       0.00000000       0.00000000       0.00000000
O        1.95000000       0.00000000       2.05000000       0.00000000       0.00000000       0.00000000
O        0.00000000       1.95000000       2.05000000       0.00000000       0.00000000       0.00000000
5
Lattice="3.9 0.0 0.0 0.0 3.9 0.0 0.0 0.0 4.1" Properties=species:S:1:pos:R:3:REF_forces:R:3 REF_energy=-0.03643670172229843 REF_electric_field="0.0 0.0 -0.05" REF_polarization="0.0 0.0 -0.013641004260141231" REF_mode_displacement=-0.14666666666666667 label_source="fixed-cell analytic Landau field-switching toy; not DFT or experiment" config_type=train_d_3_ez_4 pbc="T T T"
Ba       0.00000000       0.00000000       0.00000000       0.00000000       0.00000000       0.00000000
Ti       1.95000000       1.95000000       1.90333333       0.00000000       0.00000000       0.21297211
O        1.95000000       1.95000000       0.00000000       0.00000000       0.00000000       0.00000000
O        1.95000000       0.00000000       2.05000000       0.00000000       0.00000000       0.00000000
O        0.00000000       1.95000000       2.05000000       0.00000000       0.00000000       0.00000000
5
Lattice="3.9 0.0 0.0 0.0 3.9 0.0 0.0 0.0 4.1" Properties=species:S:1:pos:R:3:REF_forces:R:3 REF_energy=-0.027930035055631762 REF_electric_field="0.0 0.0 -0.04" REF_polarization="0.0 0.0 -0.013641004260141231" REF_mode_displacement=-0.14666666666666667 label_source="fixed-cell analytic Landau field-switching toy; not DFT or experiment" config_type=train_d_3_ez_5 pbc="T T T"
Ba       0.00000000       0.00000000       0.00000000       0.00000000       0.00000000       0.00000000
Ti       1.95000000       1.95000000       1.90333333       0.00000000       0.00000000       0.27097211
O        1.95000000       1.95000000       0.00000000       0.00000000       0.00000000       0.00000000
O        1.95000000       0.00000000       2.05000000       0.00000000       0.00000000       0.00000000
O        0.00000000       1.95000000       2.05000000       0.00000000       0.00000000       0.00000000
5
Lattice="3.9 0.0 0.0 0.0 3.9 0.0 0.0 0.0 4.1" Properties=species:S:1:pos:R:3:REF_forces:R:3 REF_energy=-0.010916701722298427 REF_electric_field="0.0 0.0 -0.02" REF_polarization="0.0 0.0 -0.013641004260141231" REF_mode_displacement=-0.14666666666666667 label_source="fixed-cell analytic Landau field-switching toy; not DFT or experiment" config_type=train_d_3_ez_6 pbc="T T T"
Ba       0.00000000       0.00000000       0.00000000       0.00000000       0.00000000       0.00000000
Ti       1.95000000       1.95000000       1.90333333       0.00000000       0.00000000       0.38697211
O        1.95000000       1.95000000       0.00000000       0.00000000       0.00000000       0.00000000
O        1.95000000       0.00000000       2.05000000       0.00000000       0.00000000       0.00000000
O        0.00000000       1.95000000       2.05000000       0.00000000       0.00000000       0.00000000
5
Lattice="3.9 0.0 0.0 0.0 3.9 0.0 0.0 0.0 4.1" Properties=species:S:1:pos:R:3:REF_forces:R:3 REF_energy=0.006096631611034908 REF_electric_field="0.0 0.0 0.0" REF_polarization="0.0 0.0 -0.013641004260141231" REF_mode_displacement=-0.14666666666666667 label_source="fixed-cell analytic Landau field-switching toy; not DFT or experiment" config_type=train_d_3_ez_7 pbc="T T T"
Ba       0.00000000       0.00000000       0.00000000       0.00000000       0.00000000       0.00000000
Ti       1.95000000       1.95000000       1.90333333       0.00000000       0.00000000       0.50297211
O        1.95000000       1.95000000       0.00000000       0.00000000       0.00000000       0.00000000
O        1.95000000       0.00000000       2.05000000       0.00000000       0.00000000       0.00000000
O        0.00000000       1.95000000       2.05000000       0.00000000       0.00000000       0.00000000
5
Lattice="3.9 0.0 0.0 0.0 3.9 0.0 0.0 0.0 4.1" Properties=species:S:1:pos:R:3:REF_forces:R:3 REF_energy=0.023109964944368244 REF_electric_field="0.0 0.0 0.02" REF_polarization="0.0 0.0 -0.013641004260141231" REF_mode_displacement=-0.14666666666666667 label_source="fixed-cell analytic Landau field-switching toy; not DFT or experiment" config_type=train_d_3_ez_8 pbc="T T T"
Ba       0.00000000       0.00000000       0.00000000       0.00000000       0.00000000       0.00000000
Ti       1.95000000       1.95000000       1.90333333       0.00000000       0.00000000       0.61897211
O        1.95000000       1.95000000       0.00000000       0.00000000       0.00000000       0.00000000
O        1.95000000       0.00000000       2.05000000       0.00000000       0.00000000       0.00000000
O        0.00000000       1.95000000       2.05000000       0.00000000       0.00000000       0.00000000
5
Lattice="3.9 0.0 0.0 0.0 3.9 0.0 0.0 0.0 4.1" Properties=species:S:1:pos:R:3:REF_forces:R:3 REF_energy=0.04012329827770158 REF_electric_field="0.0 0.0 0.04" REF_polarization="0.0 0.0 -0.013641004260141231" REF_mode_displacement=-0.14666666666666667 label_source="fixed-cell analytic Landau field-switching toy; not DFT or experiment" config_type=train_d_3_ez_9 pbc="T T T"
Ba       0.00000000       0.00000000       0.00000000       0.00000000       0.00000000       0.00000000
Ti       1.95000000       1.95000000       1.90333333       0.00000000       0.00000000       0.73497211
O        1.95000000       1.95000000       0.00000000       0.00000000       0.00000000       0.00000000
O        1.95000000       0.00000000       2.05000000       0.00000000       0.00000000       0.00000000
O        0.00000000       1.95000000       2.05000000       0.00000000       0.00000000       0.00000000
5
Lattice="3.9 0.0 0.0 0.0 3.9 0.0 0.0 0.0 4.1" Properties=species:S:1:pos:R:3:REF_forces:R:3 REF_energy=0.04862996494436825 REF_electric_field="0.0 0.0 0.05" REF_polarization="0.0 0.0 -0.013641004260141231" REF_mode_displacement=-0.14666666666666667 label_source="fixed-cell analytic Landau field-switching toy; not DFT or experiment" config_type=train_d_3_ez_10 pbc="T T T"
Ba       0.00000000       0.00000000       0.00000000       0.00000000       0.00000000       0.00000000
Ti       1.95000000       1.95000000       1.90333333       0.00000000       0.00000000       0.79297211
O        1.95000000       1.95000000       0.00000000       0.00000000       0.00000000       0.00000000
O        1.95000000       0.00000000       2.05000000       0.00000000       0.00000000       0.00000000
O        0.00000000       1.95000000       2.05000000       0.00000000       0.00000000       0.00000000
5
Lattice="3.9 0.0 0.0 0.0 3.9 0.0 0.0 0.0 4.1" Properties=species:S:1:pos:R:3:REF_forces:R:3 REF_energy=0.05713663161103491 REF_electric_field="0.0 0.0 0.06" REF_polarization="0.0 0.0 -0.013641004260141231" REF_mode_displacement=-0.14666666666666667 label_source="fixed-cell analytic Landau field-switching toy; not DFT or experiment" config_type=train_d_3_ez_11 pbc="T T T"
Ba       0.00000000       0.00000000       0.00000000       0.00000000       0.00000000       0.00000000
Ti       1.95000000       1.95000000       1.90333333       0.00000000       0.00000000       0.85097211
O        1.95000000       1.95000000       0.00000000       0.00000000       0.00000000       0.00000000
O        1.95000000       0.00000000       2.05000000       0.00000000       0.00000000       0.00000000
O        0.00000000       1.95000000       2.05000000       0.00000000       0.00000000       0.00000000
5
Lattice="3.9 0.0 0.0 0.0 3.9 0.0 0.0 0.0 4.1" Properties=species:S:1:pos:R:3:REF_forces:R:3 REF_energy=0.07414996494436825 REF_electric_field="0.0 0.0 0.08" REF_polarization="0.0 0.0 -0.013641004260141231" REF_mode_displacement=-0.14666666666666667 label_source="fixed-cell analytic Landau field-switching toy; not DFT or experiment" config_type=train_d_3_ez_12 pbc="T T T"
Ba       0.00000000       0.00000000       0.00000000       0.00000000       0.00000000       0.00000000
Ti       1.95000000       1.95000000       1.90333333       0.00000000       0.00000000       0.96697211
O        1.95000000       1.95000000       0.00000000       0.00000000       0.00000000       0.00000000
O        1.95000000       0.00000000       2.05000000       0.00000000       0.00000000       0.00000000
O        0.00000000       1.95000000       2.05000000       0.00000000       0.00000000       0.00000000
5
Lattice="3.9 0.0 0.0 0.0 3.9 0.0 0.0 0.0 4.1" Properties=species:S:1:pos:R:3:REF_forces:R:3 REF_energy=0.09116329827770159 REF_electric_field="0.0 0.0 0.1" REF_polarization="0.0 0.0 -0.013641004260141231" REF_mode_displacement=-0.14666666666666667 label_source="fixed-cell analytic Landau field-switching toy; not DFT or experiment" config_type=train_d_3_ez_13 pbc="T T T"
Ba       0.00000000       0.00000000       0.00000000       0.00000000       0.00000000       0.00000000
Ti       1.95000000       1.95000000       1.90333333       0.00000000       0.00000000       1.08297211
O        1.95000000       1.95000000       0.00000000       0.00000000       0.00000000       0.00000000
O        1.95000000       0.00000000       2.05000000       0.00000000       0.00000000       0.00000000
O        0.00000000       1.95000000       2.05000000       0.00000000       0.00000000       0.00000000
5
Lattice="3.9 0.0 0.0 0.0 3.9 0.0 0.0 0.0 4.1" Properties=species:S:1:pos:R:3:REF_forces:R:3 REF_energy=0.10817663161103491 REF_electric_field="0.0 0.0 0.12" REF_polarization="0.0 0.0 -0.013641004260141231" REF_mode_displacement=-0.14666666666666667 label_source="fixed-cell analytic Landau field-switching toy; not DFT or experiment" config_type=train_d_3_ez_14 pbc="T T T"
Ba       0.00000000       0.00000000       0.00000000       0.00000000       0.00000000       0.00000000
Ti       1.95000000       1.95000000       1.90333333       0.00000000       0.00000000       1.19897211
O        1.95000000       1.95000000       0.00000000       0.00000000       0.00000000       0.00000000
O        1.95000000       0.00000000       2.05000000       0.00000000       0.00000000       0.00000000
O        0.00000000       1.95000000       2.05000000       0.00000000       0.00000000       0.00000000
5
Lattice="3.9 0.0 0.0 0.0 3.9 0.0 0.0 0.0 4.1" Properties=species:S:1:pos:R:3:REF_forces:R:3 REF_energy=-0.08503173510794235 REF_electric_field="0.0 0.0 -0.12" REF_polarization="0.0 0.0 -0.01136750355011769" REF_mode_displacement=-0.12222222222222222 label_source="fixed-cell analytic Landau field-switching toy; not DFT or experiment" config_type=train_d_4_ez_0 pbc="T T T"
Ba       0.00000000       0.00000000       0.00000000       0.00000000       0.00000000       0.00000000
Ti       1.95000000       1.95000000       1.92777778       0.00000000       0.00000000      -0.66427317
O        1.95000000       1.95000000       0.00000000       0.00000000       0.00000000       0.00000000
O        1.95000000       0.00000000       2.05000000       0.00000000       0.00000000       0.00000000
O        0.00000000       1.95000000       2.05000000       0.00000000       0.00000000       0.00000000
5
Lattice="3.9 0.0 0.0 0.0 3.9 0.0 0.0 0.0 4.1" Properties=species:S:1:pos:R:3:REF_forces:R:3 REF_energy=-0.07085395733016457 REF_electric_field="0.0 0.0 -0.1" REF_polarization="0.0 0.0 -0.01136750355011769" REF_mode_displacement=-0.12222222222222222 label_source="fixed-cell analytic Landau field-switching toy; not DFT or experiment" config_type=train_d_4_ez_1 pbc="T T T"
Ba       0.00000000       0.00000000       0.00000000       0.00000000       0.00000000       0.00000000
Ti       1.95000000       1.95000000       1.92777778       0.00000000       0.00000000      -0.54827317
O        1.95000000       1.95000000       0.00000000       0.00000000       0.00000000       0.00000000
O        1.95000000       0.00000000       2.05000000       0.00000000       0.00000000       0.00000000
O        0.00000000       1.95000000       2.05000000       0.00000000       0.00000000       0.00000000
5
Lattice="3.9 0.0 0.0 0.0 3.9 0.0 0.0 0.0 4.1" Properties=species:S:1:pos:R:3:REF_forces:R:3 REF_energy=-0.0566761795523868 REF_electric_field="0.0 0.0 -0.08" REF_polarization="0.0 0.0 -0.01136750355011769" REF_mode_displacement=-0.12222222222222222 label_source="fixed-cell analytic Landau field-switching toy; not DFT or experiment" config_type=train_d_4_ez_2 pbc="T T T"
Ba       0.00000000       0.00000000       0.00000000       0.00000000       0.00000000       0.00000000
Ti       1.95000000       1.95000000       1.92777778       0.00000000       0.00000000      -0.43227317
O        1.95000000       1.95000000       0.00000000       0.00000000       0.00000000       0.00000000
O        1.95000000       0.00000000       2.05000000       0.00000000       0.00000000       0.00000000
O        0.00000000       1.95000000       2.05000000       0.00000000       0.00000000       0.00000000
5
Lattice="3.9 0.0 0.0 0.0 3.9 0.0 0.0 0.0 4.1" Properties=species:S:1:pos:R:3:REF_forces:R:3 REF_energy=-0.04249840177460903 REF_electric_field="0.0 0.0 -0.06" REF_polarization="0.0 0.0 -0.01136750355011769" REF_mode_displacement=-0.12222222222222222 label_source="fixed-cell analytic Landau field-switching toy; not DFT or experiment" config_type=train_d_4_ez_3 pbc="T T T"
Ba       0.00000000       0.00000000       0.00000000       0.00000000       0.00000000       0.00000000
Ti       1.95000000       1.95000000       1.92777778       0.00000000       0.00000000      -0.31627317
O        1.95000000       1.95000000       0.00000000       0.00000000       0.00000000       0.00000000
O        1.95000000       0.00000000       2.05000000       0.00000000       0.00000000       0.00000000
O        0.00000000       1.95000000       2.05000000       0.00000000       0.00000000       0.00000000
5
Lattice="3.9 0.0 0.0 0.0 3.9 0.0 0.0 0.0 4.1" Properties=species:S:1:pos:R:3:REF_forces:R:3 REF_energy=-0.03540951288572014 REF_electric_field="0.0 0.0 -0.05" REF_polarization="0.0 0.0 -0.01136750355011769" REF_mode_displacement=-0.12222222222222222 label_source="fixed-cell analytic Landau field-switching toy; not DFT or experiment" config_type=train_d_4_ez_4 pbc="T T T"
Ba       0.00000000       0.00000000       0.00000000       0.00000000       0.00000000       0.00000000
Ti       1.95000000       1.95000000       1.92777778       0.00000000       0.00000000      -0.25827317
O        1.95000000       1.95000000       0.00000000       0.00000000       0.00000000       0.00000000
O        1.95000000       0.00000000       2.05000000       0.00000000       0.00000000       0.00000000
O        0.00000000       1.95000000       2.05000000       0.00000000       0.00000000       0.00000000
5
Lattice="3.9 0.0 0.0 0.0 3.9 0.0 0.0 0.0 4.1" Properties=species:S:1:pos:R:3:REF_forces:R:3 REF_energy=-0.028320623996831253 REF_electric_field="0.0 0.0 -0.04" REF_polarization="0.0 0.0 -0.01136750355011769" REF_mode_displacement=-0.12222222222222222 label_source="fixed-cell analytic Landau field-switching toy; not DFT or experiment" config_type=train_d_4_ez_5 pbc="T T T"
Ba       0.00000000       0.00000000       0.00000000       0.00000000       0.00000000       0.00000000
Ti       1.95000000       1.95000000       1.92777778       0.00000000       0.00000000      -0.20027317
O        1.95000000       1.95000000       0.00000000       0.00000000       0.00000000       0.00000000
O        1.95000000       0.00000000       2.05000000       0.00000000       0.00000000       0.00000000
O        0.00000000       1.95000000       2.05000000       0.00000000       0.00000000       0.00000000
5
Lattice="3.9 0.0 0.0 0.0 3.9 0.0 0.0 0.0 4.1" Properties=species:S:1:pos:R:3:REF_forces:R:3 REF_energy=-0.014142846219053476 REF_electric_field="0.0 0.0 -0.02" REF_polarization="0.0 0.0 -0.01136750355011769" REF_mode_displacement=-0.12222222222222222 label_source="fixed-cell analytic Landau field-switching toy; not DFT or experiment" config_type=train_d_4_ez_6 pbc="T T T"
Ba       0.00000000       0.00000000       0.00000000       0.00000000       0.00000000       0.00000000
Ti       1.95000000       1.95000000       1.92777778       0.00000000       0.00000000      -0.08427317
O        1.95000000       1.95000000       0.00000000       0.00000000       0.00000000       0.00000000
O        1.95000000       0.00000000       2.05000000       0.00000000       0.00000000       0.00000000
O        0.00000000       1.95000000       2.05000000       0.00000000       0.00000000       0.00000000
5
Lattice="3.9 0.0 0.0 0.0 3.9 0.0 0.0 0.0 4.1" Properties=species:S:1:pos:R:3:REF_forces:R:3 REF_energy=3.493155872429915e-05 REF_electric_field="0.0 0.0 0.0" REF_polarization="0.0 0.0 -0.01136750355011769" REF_mode_displacement=-0.12222222222222222 label_source="fixed-cell analytic Landau field-switching toy; not DFT or experiment" config_type=train_d_4_ez_7 pbc="T T T"
Ba       0.00000000       0.00000000       0.00000000       0.00000000       0.00000000       0.00000000
Ti       1.95000000       1.95000000       1.92777778       0.00000000       0.00000000       0.03172683
O        1.95000000       1.95000000       0.00000000       0.00000000       0.00000000       0.00000000
O        1.95000000       0.00000000       2.05000000       0.00000000       0.00000000       0.00000000
O        0.00000000       1.95000000       2.05000000       0.00000000       0.00000000       0.00000000
5
Lattice="3.9 0.0 0.0 0.0 3.9 0.0 0.0 0.0 4.1" Properties=species:S:1:pos:R:3:REF_forces:R:3 REF_energy=0.014212709336502075 REF_electric_field="0.0 0.0 0.02" REF_polarization="0.0 0.0 -0.01136750355011769" REF_mode_displacement=-0.12222222222222222 label_source="fixed-cell analytic Landau field-switching toy; not DFT or experiment" config_type=train_d_4_ez_8 pbc="T T T"
Ba       0.00000000       0.00000000       0.00000000       0.00000000       0.00000000       0.00000000
Ti       1.95000000       1.95000000       1.92777778       0.00000000       0.00000000       0.14772683
O        1.95000000       1.95000000       0.00000000       0.00000000       0.00000000       0.00000000
O        1.95000000       0.00000000       2.05000000       0.00000000       0.00000000       0.00000000
O        0.00000000       1.95000000       2.05000000       0.00000000       0.00000000       0.00000000
5
Lattice="3.9 0.0 0.0 0.0 3.9 0.0 0.0 0.0 4.1" Properties=species:S:1:pos:R:3:REF_forces:R:3 REF_energy=0.02839048711427985 REF_electric_field="0.0 0.0 0.04" REF_polarization="0.0 0.0 -0.01136750355011769" REF_mode_displacement=-0.12222222222222222 label_source="fixed-cell analytic Landau field-switching toy; not DFT or experiment" config_type=train_d_4_ez_9 pbc="T T T"
Ba       0.00000000       0.00000000       0.00000000       0.00000000       0.00000000       0.00000000
Ti       1.95000000       1.95000000       1.92777778       0.00000000       0.00000000       0.26372683
O        1.95000000       1.95000000       0.00000000       0.00000000       0.00000000       0.00000000
O        1.95000000       0.00000000       2.05000000       0.00000000       0.00000000       0.00000000
O        0.00000000       1.95000000       2.05000000       0.00000000       0.00000000       0.00000000
5
Lattice="3.9 0.0 0.0 0.0 3.9 0.0 0.0 0.0 4.1" Properties=species:S:1:pos:R:3:REF_forces:R:3 REF_energy=0.035479376003168736 REF_electric_field="0.0 0.0 0.05" REF_polarization="0.0 0.0 -0.01136750355011769" REF_mode_displacement=-0.12222222222222222 label_source="fixed-cell analytic Landau field-switching toy; not DFT or experiment" config_type=train_d_4_ez_10 pbc="T T T"
Ba       0.00000000       0.00000000       0.00000000       0.00000000       0.00000000       0.00000000
Ti       1.95000000       1.95000000       1.92777778       0.00000000       0.00000000       0.32172683
O        1.95000000       1.95000000       0.00000000       0.00000000       0.00000000       0.00000000
O        1.95000000       0.00000000       2.05000000       0.00000000       0.00000000       0.00000000
O        0.00000000       1.95000000       2.05000000       0.00000000       0.00000000       0.00000000
5
Lattice="3.9 0.0 0.0 0.0 3.9 0.0 0.0 0.0 4.1" Properties=species:S:1:pos:R:3:REF_forces:R:3 REF_energy=0.042568264892057624 REF_electric_field="0.0 0.0 0.06" REF_polarization="0.0 0.0 -0.01136750355011769" REF_mode_displacement=-0.12222222222222222 label_source="fixed-cell analytic Landau field-switching toy; not DFT or experiment" config_type=train_d_4_ez_11 pbc="T T T"
Ba       0.00000000       0.00000000       0.00000000       0.00000000       0.00000000       0.00000000
Ti       1.95000000       1.95000000       1.92777778       0.00000000       0.00000000       0.37972683
O        1.95000000       1.95000000       0.00000000       0.00000000       0.00000000       0.00000000
O        1.95000000       0.00000000       2.05000000       0.00000000       0.00000000       0.00000000
O        0.00000000       1.95000000       2.05000000       0.00000000       0.00000000       0.00000000
5
Lattice="3.9 0.0 0.0 0.0 3.9 0.0 0.0 0.0 4.1" Properties=species:S:1:pos:R:3:REF_forces:R:3 REF_energy=0.0567460426698354 REF_electric_field="0.0 0.0 0.08" REF_polarization="0.0 0.0 -0.01136750355011769" REF_mode_displacement=-0.12222222222222222 label_source="fixed-cell analytic Landau field-switching toy; not DFT or experiment" config_type=train_d_4_ez_12 pbc="T T T"
Ba       0.00000000       0.00000000       0.00000000       0.00000000       0.00000000       0.00000000
Ti       1.95000000       1.95000000       1.92777778       0.00000000       0.00000000       0.49572683
O        1.95000000       1.95000000       0.00000000       0.00000000       0.00000000       0.00000000
O        1.95000000       0.00000000       2.05000000       0.00000000       0.00000000       0.00000000
O        0.00000000       1.95000000       2.05000000       0.00000000       0.00000000       0.00000000
5
Lattice="3.9 0.0 0.0 0.0 3.9 0.0 0.0 0.0 4.1" Properties=species:S:1:pos:R:3:REF_forces:R:3 REF_energy=0.07092382044761318 REF_electric_field="0.0 0.0 0.1" REF_polarization="0.0 0.0 -0.01136750355011769" REF_mode_displacement=-0.12222222222222222 label_source="fixed-cell analytic Landau field-switching toy; not DFT or experiment" config_type=train_d_4_ez_13 pbc="T T T"
Ba       0.00000000       0.00000000       0.00000000       0.00000000       0.00000000       0.00000000
Ti       1.95000000       1.95000000       1.92777778       0.00000000       0.00000000       0.61172683
O        1.95000000       1.95000000       0.00000000       0.00000000       0.00000000       0.00000000
O        1.95000000       0.00000000       2.05000000       0.00000000       0.00000000       0.00000000
O        0.00000000       1.95000000       2.05000000       0.00000000       0.00000000       0.00000000
5
Lattice="3.9 0.0 0.0 0.0 3.9 0.0 0.0 0.0 4.1" Properties=species:S:1:pos:R:3:REF_forces:R:3 REF_energy=0.08510159822539096 REF_electric_field="0.0 0.0 0.12" REF_polarization="0.0 0.0 -0.01136750355011769" REF_mode_displacement=-0.12222222222222222 label_source="fixed-cell analytic Landau field-switching toy; not DFT or experiment" config_type=train_d_4_ez_14 pbc="T T T"
Ba       0.00000000       0.00000000       0.00000000       0.00000000       0.00000000       0.00000000
Ti       1.95000000       1.95000000       1.92777778       0.00000000       0.00000000       0.72772683
O        1.95000000       1.95000000       0.00000000       0.00000000       0.00000000       0.00000000
O        1.95000000       0.00000000       2.05000000       0.00000000       0.00000000       0.00000000
O        0.00000000       1.95000000       2.05000000       0.00000000       0.00000000       0.00000000
5
Lattice="3.9 0.0 0.0 0.0 3.9 0.0 0.0 0.0 4.1" Properties=species:S:1:pos:R:3:REF_forces:R:3 REF_energy=-0.08352 REF_electric_field="0.0 0.0 -0.12" REF_polarization="0.0 0.0 -0.01116082166738828" REF_mode_displacement=-0.12 label_source="fixed-cell analytic Landau field-switching toy; not DFT or experiment" config_type=train_d_5_ez_0 pbc="T T T"
Ba       0.00000000       0.00000000       0.00000000       0.00000000       0.00000000       0.00000000
Ti       1.95000000       1.95000000       1.93000000       0.00000000       0.00000000      -0.69600000
O        1.95000000       1.95000000       0.00000000       0.00000000       0.00000000       0.00000000
O        1.95000000       0.00000000       2.05000000       0.00000000       0.00000000       0.00000000
O        0.00000000       1.95000000       2.05000000       0.00000000       0.00000000       0.00000000
5
Lattice="3.9 0.0 0.0 0.0 3.9 0.0 0.0 0.0 4.1" Properties=species:S:1:pos:R:3:REF_forces:R:3 REF_energy=-0.0696 REF_electric_field="0.0 0.0 -0.1" REF_polarization="0.0 0.0 -0.01116082166738828" REF_mode_displacement=-0.12 label_source="fixed-cell analytic Landau field-switching toy; not DFT or experiment" config_type=train_d_5_ez_1 pbc="T T T"
Ba       0.00000000       0.00000000       0.00000000       0.00000000       0.00000000       0.00000000
Ti       1.95000000       1.95000000       1.93000000       0.00000000       0.00000000      -0.58000000
O        1.95000000       1.95000000       0.00000000       0.00000000       0.00000000       0.00000000
O        1.95000000       0.00000000       2.05000000       0.00000000       0.00000000       0.00000000
O        0.00000000       1.95000000       2.05000000       0.00000000       0.00000000       0.00000000
5
Lattice="3.9 0.0 0.0 0.0 3.9 0.0 0.0 0.0 4.1" Properties=species:S:1:pos:R:3:REF_forces:R:3 REF_energy=-0.05568 REF_electric_field="0.0 0.0 -0.08" REF_polarization="0.0 0.0 -0.01116082166738828" REF_mode_displacement=-0.12 label_source="fixed-cell analytic Landau field-switching toy; not DFT or experiment" config_type=train_d_5_ez_2 pbc="T T T"
Ba       0.00000000       0.00000000       0.00000000       0.00000000       0.00000000       0.00000000
Ti       1.95000000       1.95000000       1.93000000       0.00000000       0.00000000      -0.46400000
O        1.95000000       1.95000000       0.00000000       0.00000000       0.00000000       0.00000000
O        1.95000000       0.00000000       2.05000000       0.00000000       0.00000000       0.00000000
O        0.00000000       1.95000000       2.05000000       0.00000000       0.00000000       0.00000000
5
Lattice="3.9 0.0 0.0 0.0 3.9 0.0 0.0 0.0 4.1" Properties=species:S:1:pos:R:3:REF_forces:R:3 REF_energy=-0.04176 REF_electric_field="0.0 0.0 -0.06" REF_polarization="0.0 0.0 -0.01116082166738828" REF_mode_displacement=-0.12 label_source="fixed-cell analytic Landau field-switching toy; not DFT or experiment" config_type=train_d_5_ez_3 pbc="T T T"
Ba       0.00000000       0.00000000       0.00000000       0.00000000       0.00000000       0.00000000
Ti       1.95000000       1.95000000       1.93000000       0.00000000       0.00000000      -0.34800000
O        1.95000000       1.95000000       0.00000000       0.00000000       0.00000000       0.00000000
O        1.95000000       0.00000000       2.05000000       0.00000000       0.00000000       0.00000000
O        0.00000000       1.95000000       2.05000000       0.00000000       0.00000000       0.00000000
5
Lattice="3.9 0.0 0.0 0.0 3.9 0.0 0.0 0.0 4.1" Properties=species:S:1:pos:R:3:REF_forces:R:3 REF_energy=-0.0348 REF_electric_field="0.0 0.0 -0.05" REF_polarization="0.0 0.0 -0.01116082166738828" REF_mode_displacement=-0.12 label_source="fixed-cell analytic Landau field-switching toy; not DFT or experiment" config_type=train_d_5_ez_4 pbc="T T T"
Ba       0.00000000       0.00000000       0.00000000       0.00000000       0.00000000       0.00000000
Ti       1.95000000       1.95000000       1.93000000       0.00000000       0.00000000      -0.29000000
O        1.95000000       1.95000000       0.00000000       0.00000000       0.00000000       0.00000000
O        1.95000000       0.00000000       2.05000000       0.00000000       0.00000000       0.00000000
O        0.00000000       1.95000000       2.05000000       0.00000000       0.00000000       0.00000000
5
Lattice="3.9 0.0 0.0 0.0 3.9 0.0 0.0 0.0 4.1" Properties=species:S:1:pos:R:3:REF_forces:R:3 REF_energy=-0.02784 REF_electric_field="0.0 0.0 -0.04" REF_polarization="0.0 0.0 -0.01116082166738828" REF_mode_displacement=-0.12 label_source="fixed-cell analytic Landau field-switching toy; not DFT or experiment" config_type=train_d_5_ez_5 pbc="T T T"
Ba       0.00000000       0.00000000       0.00000000       0.00000000       0.00000000       0.00000000
Ti       1.95000000       1.95000000       1.93000000       0.00000000       0.00000000      -0.23200000
O        1.95000000       1.95000000       0.00000000       0.00000000       0.00000000       0.00000000
O        1.95000000       0.00000000       2.05000000       0.00000000       0.00000000       0.00000000
O        0.00000000       1.95000000       2.05000000       0.00000000       0.00000000       0.00000000
5
Lattice="3.9 0.0 0.0 0.0 3.9 0.0 0.0 0.0 4.1" Properties=species:S:1:pos:R:3:REF_forces:R:3 REF_energy=-0.01392 REF_electric_field="0.0 0.0 -0.02" REF_polarization="0.0 0.0 -0.01116082166738828" REF_mode_displacement=-0.12 label_source="fixed-cell analytic Landau field-switching toy; not DFT or experiment" config_type=train_d_5_ez_6 pbc="T T T"
Ba       0.00000000       0.00000000       0.00000000       0.00000000       0.00000000       0.00000000
Ti       1.95000000       1.95000000       1.93000000       0.00000000       0.00000000      -0.11600000
O        1.95000000       1.95000000       0.00000000       0.00000000       0.00000000       0.00000000
O        1.95000000       0.00000000       2.05000000       0.00000000       0.00000000       0.00000000
O        0.00000000       1.95000000       2.05000000       0.00000000       0.00000000       0.00000000
5
Lattice="3.9 0.0 0.0 0.0 3.9 0.0 0.0 0.0 4.1" Properties=species:S:1:pos:R:3:REF_forces:R:3 REF_energy=0.0 REF_electric_field="0.0 0.0 0.0" REF_polarization="0.0 0.0 -0.01116082166738828" REF_mode_displacement=-0.12 label_source="fixed-cell analytic Landau field-switching toy; not DFT or experiment" config_type=train_d_5_ez_7 pbc="T T T"
Ba       0.00000000       0.00000000       0.00000000       0.00000000       0.00000000       0.00000000
Ti       1.95000000       1.95000000       1.93000000       0.00000000       0.00000000       0.00000000
O        1.95000000       1.95000000       0.00000000       0.00000000       0.00000000       0.00000000
O        1.95000000       0.00000000       2.05000000       0.00000000       0.00000000       0.00000000
O        0.00000000       1.95000000       2.05000000       0.00000000       0.00000000       0.00000000
5
Lattice="3.9 0.0 0.0 0.0 3.9 0.0 0.0 0.0 4.1" Properties=species:S:1:pos:R:3:REF_forces:R:3 REF_energy=0.01392 REF_electric_field="0.0 0.0 0.02" REF_polarization="0.0 0.0 -0.01116082166738828" REF_mode_displacement=-0.12 label_source="fixed-cell analytic Landau field-switching toy; not DFT or experiment" config_type=train_d_5_ez_8 pbc="T T T"
Ba       0.00000000       0.00000000       0.00000000       0.00000000       0.00000000       0.00000000
Ti       1.95000000       1.95000000       1.93000000       0.00000000       0.00000000       0.11600000
O        1.95000000       1.95000000       0.00000000       0.00000000       0.00000000       0.00000000
O        1.95000000       0.00000000       2.05000000       0.00000000       0.00000000       0.00000000
O        0.00000000       1.95000000       2.05000000       0.00000000       0.00000000       0.00000000
5
Lattice="3.9 0.0 0.0 0.0 3.9 0.0 0.0 0.0 4.1" Properties=species:S:1:pos:R:3:REF_forces:R:3 REF_energy=0.02784 REF_electric_field="0.0 0.0 0.04" REF_polarization="0.0 0.0 -0.01116082166738828" REF_mode_displacement=-0.12 label_source="fixed-cell analytic Landau field-switching toy; not DFT or experiment" config_type=train_d_5_ez_9 pbc="T T T"
Ba       0.00000000       0.00000000       0.00000000       0.00000000       0.00000000       0.00000000
Ti       1.95000000       1.95000000       1.93000000       0.00000000       0.00000000       0.23200000
O        1.95000000       1.95000000       0.00000000       0.00000000       0.00000000       0.00000000
O        1.95000000       0.00000000       2.05000000       0.00000000       0.00000000       0.00000000
O        0.00000000       1.95000000       2.05000000       0.00000000       0.00000000       0.00000000
5
Lattice="3.9 0.0 0.0 0.0 3.9 0.0 0.0 0.0 4.1" Properties=species:S:1:pos:R:3:REF_forces:R:3 REF_energy=0.0348 REF_electric_field="0.0 0.0 0.05" REF_polarization="0.0 0.0 -0.01116082166738828" REF_mode_displacement=-0.12 label_source="fixed-cell analytic Landau field-switching toy; not DFT or experiment" config_type=train_d_5_ez_10 pbc="T T T"
Ba       0.00000000       0.00000000       0.00000000       0.00000000       0.00000000       0.00000000
Ti       1.95000000       1.95000000       1.93000000       0.00000000       0.00000000       0.29000000
O        1.95000000       1.95000000       0.00000000       0.00000000       0.00000000       0.00000000
O        1.95000000       0.00000000       2.05000000       0.00000000       0.00000000       0.00000000
O        0.00000000       1.95000000       2.05000000       0.00000000       0.00000000       0.00000000
5
Lattice="3.9 0.0 0.0 0.0 3.9 0.0 0.0 0.0 4.1" Properties=species:S:1:pos:R:3:REF_forces:R:3 REF_energy=0.04176 REF_electric_field="0.0 0.0 0.06" REF_polarization="0.0 0.0 -0.01116082166738828" REF_mode_displacement=-0.12 label_source="fixed-cell analytic Landau field-switching toy; not DFT or experiment" config_type=train_d_5_ez_11 pbc="T T T"
Ba       0.00000000       0.00000000       0.00000000       0.00000000       0.00000000       0.00000000
Ti       1.95000000       1.95000000       1.93000000       0.00000000       0.00000000       0.34800000
O        1.95000000       1.95000000       0.00000000       0.00000000       0.00000000       0.00000000
O        1.95000000       0.00000000       2.05000000       0.00000000       0.00000000       0.00000000
O        0.00000000       1.95000000       2.05000000       0.00000000       0.00000000       0.00000000
5
Lattice="3.9 0.0 0.0 0.0 3.9 0.0 0.0 0.0 4.1" Properties=species:S:1:pos:R:3:REF_forces:R:3 REF_energy=0.05568 REF_electric_field="0.0 0.0 0.08" REF_polarization="0.0 0.0 -0.01116082166738828" REF_mode_displacement=-0.12 label_source="fixed-cell analytic Landau field-switching toy; not DFT or experiment" config_type=train_d_5_ez_12 pbc="T T T"
Ba       0.00000000       0.00000000       0.00000000       0.00000000       0.00000000       0.00000000
Ti       1.95000000       1.95000000       1.93000000       0.00000000       0.00000000       0.46400000
O        1.95000000       1.95000000       0.00000000       0.00000000       0.00000000       0.00000000
O        1.95000000       0.00000000       2.05000000       0.00000000       0.00000000       0.00000000
O        0.00000000       1.95000000       2.05000000       0.00000000       0.00000000       0.00000000
5
Lattice="3.9 0.0 0.0 0.0 3.9 0.0 0.0 0.0 4.1" Properties=species:S:1:pos:R:3:REF_forces:R:3 REF_energy=0.0696 REF_electric_field="0.0 0.0 0.1" REF_polarization="0.0 0.0 -0.01116082166738828" REF_mode_displacement=-0.12 label_source="fixed-cell analytic Landau field-switching toy; not DFT or experiment" config_type=train_d_5_ez_13 pbc="T T T"
Ba       0.00000000       0.00000000       0.00000000       0.00000000       0.00000000       0.00000000
Ti       1.95000000       1.95000000       1.93000000       0.00000000       0.00000000       0.58000000
O        1.95000000       1.95000000       0.00000000       0.00000000       0.00000000       0.00000000
O        1.95000000       0.00000000       2.05000000       0.00000000       0.00000000       0.00000000
O        0.00000000       1.95000000       2.05000000       0.00000000       0.00000000       0.00000000
5
Lattice="3.9 0.0 0.0 0.0 3.9 0.0 0.0 0.0 4.1" Properties=species:S:1:pos:R:3:REF_forces:R:3 REF_energy=0.08352 REF_electric_field="0.0 0.0 0.12" REF_polarization="0.0 0.0 -0.01116082166738828" REF_mode_displacement=-0.12 label_source="fixed-cell analytic Landau field-switching toy; not DFT or experiment" config_type=train_d_5_ez_14 pbc="T T T"
Ba       0.00000000       0.00000000       0.00000000       0.00000000       0.00000000       0.00000000
Ti       1.95000000       1.95000000       1.93000000       0.00000000       0.00000000       0.69600000
O        1.95000000       1.95000000       0.00000000       0.00000000       0.00000000       0.00000000
O        1.95000000       0.00000000       2.05000000       0.00000000       0.00000000       0.00000000
O        0.00000000       1.95000000       2.05000000       0.00000000       0.00000000       0.00000000
5
Lattice="3.9 0.0 0.0 0.0 3.9 0.0 0.0 0.0 4.1" Properties=species:S:1:pos:R:3:REF_forces:R:3 REF_energy=-0.06522964265083045 REF_electric_field="0.0 0.0 -0.12" REF_polarization="0.0 0.0 -0.009094002840094153" REF_mode_displacement=-0.09777777777777777 label_source="fixed-cell analytic Landau field-switching toy; not DFT or experiment" config_type=train_d_6_ez_0 pbc="T T T"
Ba       0.00000000       0.00000000       0.00000000       0.00000000       0.00000000       0.00000000
Ti       1.95000000       1.95000000       1.95222222       0.00000000       0.00000000      -0.92420031
O        1.95000000       1.95000000       0.00000000       0.00000000       0.00000000       0.00000000
O        1.95000000       0.00000000       2.05000000       0.00000000       0.00000000       0.00000000
O        0.00000000       1.95000000       2.05000000       0.00000000       0.00000000       0.00000000
5
Lattice="3.9 0.0 0.0 0.0 3.9 0.0 0.0 0.0 4.1" Properties=species:S:1:pos:R:3:REF_forces:R:3 REF_energy=-0.053887420428608244 REF_electric_field="0.0 0.0 -0.1" REF_polarization="0.0 0.0 -0.009094002840094153" REF_mode_displacement=-0.09777777777777777 label_source="fixed-cell analytic Landau field-switching toy; not DFT or experiment" config_type=train_d_6_ez_1 pbc="T T T"
Ba       0.00000000       0.00000000       0.00000000       0.00000000       0.00000000       0.00000000
Ti       1.95000000       1.95000000       1.95222222       0.00000000       0.00000000      -0.80820031
O        1.95000000       1.95000000       0.00000000       0.00000000       0.00000000       0.00000000
O        1.95000000       0.00000000       2.05000000       0.00000000       0.00000000       0.00000000
O        0.00000000       1.95000000       2.05000000       0.00000000       0.00000000       0.00000000
5
Lattice="3.9 0.0 0.0 0.0 3.9 0.0 0.0 0.0 4.1" Properties=species:S:1:pos:R:3:REF_forces:R:3 REF_energy=-0.042545198206386026 REF_electric_field="0.0 0.0 -0.08" REF_polarization="0.0 0.0 -0.009094002840094153" REF_mode_displacement=-0.09777777777777777 label_source="fixed-cell analytic Landau field-switching toy; not DFT or experiment" config_type=train_d_6_ez_2 pbc="T T T"
Ba       0.00000000       0.00000000       0.00000000       0.00000000       0.00000000       0.00000000
Ti       1.95000000       1.95000000       1.95222222       0.00000000       0.00000000      -0.69220031
O        1.95000000       1.95000000       0.00000000       0.00000000       0.00000000       0.00000000
O        1.95000000       0.00000000       2.05000000       0.00000000       0.00000000       0.00000000
O        0.00000000       1.95000000       2.05000000       0.00000000       0.00000000       0.00000000
5
Lattice="3.9 0.0 0.0 0.0 3.9 0.0 0.0 0.0 4.1" Properties=species:S:1:pos:R:3:REF_forces:R:3 REF_energy=-0.0312029759841638 REF_electric_field="0.0 0.0 -0.06" REF_polarization="0.0 0.0 -0.009094002840094153" REF_mode_displacement=-0.09777777777777777 label_source="fixed-cell analytic Landau field-switching toy; not DFT or experiment" config_type=train_d_6_ez_3 pbc="T T T"
Ba       0.00000000       0.00000000       0.00000000       0.00000000       0.00000000       0.00000000
Ti       1.95000000       1.95000000       1.95222222       0.00000000       0.00000000      -0.57620031
O        1.95000000       1.95000000       0.00000000       0.00000000       0.00000000       0.00000000
O        1.95000000       0.00000000       2.05000000       0.00000000       0.00000000       0.00000000
O        0.00000000       1.95000000       2.05000000       0.00000000       0.00000000       0.00000000
5
Lattice="3.9 0.0 0.0 0.0 3.9 0.0 0.0 0.0 4.1" Properties=species:S:1:pos:R:3:REF_forces:R:3 REF_energy=-0.025531864873052694 REF_electric_field="0.0 0.0 -0.05" REF_polarization="0.0 0.0 -0.009094002840094153" REF_mode_displacement=-0.09777777777777777 label_source="fixed-cell analytic Landau field-switching toy; not DFT or experiment" config_type=train_d_6_ez_4 pbc="T T T"
Ba       0.00000000       0.00000000       0.00000000       0.00000000       0.00000000       0.00000000
Ti       1.95000000       1.95000000       1.95222222       0.00000000       0.00000000      -0.51820031
O        1.95000000       1.95000000       0.00000000       0.00000000       0.00000000       0.00000000
O        1.95000000       0.00000000       2.05000000       0.00000000       0.00000000       0.00000000
O        0.00000000       1.95000000       2.05000000       0.00000000       0.00000000       0.00000000
5
Lattice="3.9 0.0 0.0 0.0 3.9 0.0 0.0 0.0 4.1" Properties=species:S:1:pos:R:3:REF_forces:R:3 REF_energy=-0.019860753761941585 REF_electric_field="0.0 0.0 -0.04" REF_polarization="0.0 0.0 -0.009094002840094153" REF_mode_displacement=-0.09777777777777777 label_source="fixed-cell analytic Landau field-switching toy; not DFT or experiment" config_type=train_d_6_ez_5 pbc="T T T"
Ba       0.00000000       0.00000000       0.00000000       0.00000000       0.00000000       0.00000000
Ti       1.95000000       1.95000000       1.95222222       0.00000000       0.00000000      -0.46020031
O        1.95000000       1.95000000       0.00000000       0.00000000       0.00000000       0.00000000
O        1.95000000       0.00000000       2.05000000       0.00000000       0.00000000       0.00000000
O        0.00000000       1.95000000       2.05000000       0.00000000       0.00000000       0.00000000
5
Lattice="3.9 0.0 0.0 0.0 3.9 0.0 0.0 0.0 4.1" Properties=species:S:1:pos:R:3:REF_forces:R:3 REF_energy=-0.008518531539719364 REF_electric_field="0.0 0.0 -0.02" REF_polarization="0.0 0.0 -0.009094002840094153" REF_mode_displacement=-0.09777777777777777 label_source="fixed-cell analytic Landau field-switching toy; not DFT or experiment" config_type=train_d_6_ez_6 pbc="T T T"
Ba       0.00000000       0.00000000       0.00000000       0.00000000       0.00000000       0.00000000
Ti       1.95000000       1.95000000       1.95222222       0.00000000       0.00000000      -0.34420031
O        1.95000000       1.95000000       0.00000000       0.00000000       0.00000000       0.00000000
O        1.95000000       0.00000000       2.05000000       0.00000000       0.00000000       0.00000000
O        0.00000000       1.95000000       2.05000000       0.00000000       0.00000000       0.00000000
5
Lattice="3.9 0.0 0.0 0.0 3.9 0.0 0.0 0.0 4.1" Properties=species:S:1:pos:R:3:REF_forces:R:3 REF_energy=0.0028236906825028565 REF_electric_field="0.0 0.0 0.0" REF_polarization="0.0 0.0 -0.009094002840094153" REF_mode_displacement=-0.09777777777777777 label_source="fixed-cell analytic Landau field-switching toy; not DFT or experiment" config_type=train_d_6_ez_7 pbc="T T T"
Ba       0.00000000       0.00000000       0.00000000       0.00000000       0.00000000       0.00000000
Ti       1.95000000       1.95000000       1.95222222       0.00000000       0.00000000      -0.22820031
O        1.95000000       1.95000000       0.00000000       0.00000000       0.00000000       0.00000000
O        1.95000000       0.00000000       2.05000000       0.00000000       0.00000000       0.00000000
O        0.00000000       1.95000000       2.05000000       0.00000000       0.00000000       0.00000000
5
Lattice="3.9 0.0 0.0 0.0 3.9 0.0 0.0 0.0 4.1" Properties=species:S:1:pos:R:3:REF_forces:R:3 REF_energy=0.014165912904725077 REF_electric_field="0.0 0.0 0.02" REF_polarization="0.0 0.0 -0.009094002840094153" REF_mode_displacement=-0.09777777777777777 label_source="fixed-cell analytic Landau field-switching toy; not DFT or experiment" config_type=train_d_6_ez_8 pbc="T T T"
Ba       0.00000000       0.00000000       0.00000000       0.00000000       0.00000000       0.00000000
Ti       1.95000000       1.95000000       1.95222222       0.00000000       0.00000000      -0.11220031
O        1.95000000       1.95000000       0.00000000       0.00000000       0.00000000       0.00000000
O        1.95000000       0.00000000       2.05000000       0.00000000       0.00000000       0.00000000
O        0.00000000       1.95000000       2.05000000       0.00000000       0.00000000       0.00000000
5
Lattice="3.9 0.0 0.0 0.0 3.9 0.0 0.0 0.0 4.1" Properties=species:S:1:pos:R:3:REF_forces:R:3 REF_energy=0.025508135126947298 REF_electric_field="0.0 0.0 0.04" REF_polarization="0.0 0.0 -0.009094002840094153" REF_mode_displacement=-0.09777777777777777 label_source="fixed-cell analytic Landau field-switching toy; not DFT or experiment" config_type=train_d_6_ez_9 pbc="T T T"
Ba       0.00000000       0.00000000       0.00000000       0.00000000       0.00000000       0.00000000
Ti       1.95000000       1.95000000       1.95222222       0.00000000       0.00000000       0.00379969
O        1.95000000       1.95000000       0.00000000       0.00000000       0.00000000       0.00000000
O        1.95000000       0.00000000       2.05000000       0.00000000       0.00000000       0.00000000
O        0.00000000       1.95000000       2.05000000       0.00000000       0.00000000       0.00000000
5
Lattice="3.9 0.0 0.0 0.0 3.9 0.0 0.0 0.0 4.1" Properties=species:S:1:pos:R:3:REF_forces:R:3 REF_energy=0.031179246238058407 REF_electric_field="0.0 0.0 0.05" REF_polarization="0.0 0.0 -0.009094002840094153" REF_mode_displacement=-0.09777777777777777 label_source="fixed-cell analytic Landau field-switching toy; not DFT or experiment" config_type=train_d_6_ez_10 pbc="T T T"
Ba       0.00000000       0.00000000       0.00000000       0.00000000       0.00000000       0.00000000
Ti       1.95000000       1.95000000       1.95222222       0.00000000       0.00000000       0.06179969
O        1.95000000       1.95000000       0.00000000       0.00000000       0.00000000       0.00000000
O        1.95000000       0.00000000       2.05000000       0.00000000       0.00000000       0.00000000
O        0.00000000       1.95000000       2.05000000       0.00000000       0.00000000       0.00000000
5
Lattice="3.9 0.0 0.0 0.0 3.9 0.0 0.0 0.0 4.1" Properties=species:S:1:pos:R:3:REF_forces:R:3 REF_energy=0.03685035734916951 REF_electric_field="0.0 0.0 0.06" REF_polarization="0.0 0.0 -0.009094002840094153" REF_mode_displacement=-0.09777777777777777 label_source="fixed-cell analytic Landau field-switching toy; not DFT or experiment" config_type=train_d_6_ez_11 pbc="T T T"
Ba       0.00000000       0.00000000       0.00000000       0.00000000       0.00000000       0.00000000
Ti       1.95000000       1.95000000       1.95222222       0.00000000       0.00000000       0.11979969
O        1.95000000       1.95000000       0.00000000       0.00000000       0.00000000       0.00000000
O        1.95000000       0.00000000       2.05000000       0.00000000       0.00000000       0.00000000
O        0.00000000       1.95000000       2.05000000       0.00000000       0.00000000       0.00000000
5
Lattice="3.9 0.0 0.0 0.0 3.9 0.0 0.0 0.0 4.1" Properties=species:S:1:pos:R:3:REF_forces:R:3 REF_energy=0.04819257957139174 REF_electric_field="0.0 0.0 0.08" REF_polarization="0.0 0.0 -0.009094002840094153" REF_mode_displacement=-0.09777777777777777 label_source="fixed-cell analytic Landau field-switching toy; not DFT or experiment" config_type=train_d_6_ez_12 pbc="T T T"
Ba       0.00000000       0.00000000       0.00000000       0.00000000       0.00000000       0.00000000
Ti       1.95000000       1.95000000       1.95222222       0.00000000       0.00000000       0.23579969
O        1.95000000       1.95000000       0.00000000       0.00000000       0.00000000       0.00000000
O        1.95000000       0.00000000       2.05000000       0.00000000       0.00000000       0.00000000
O        0.00000000       1.95000000       2.05000000       0.00000000       0.00000000       0.00000000
5
Lattice="3.9 0.0 0.0 0.0 3.9 0.0 0.0 0.0 4.1" Properties=species:S:1:pos:R:3:REF_forces:R:3 REF_energy=0.05953480179361396 REF_electric_field="0.0 0.0 0.1" REF_polarization="0.0 0.0 -0.009094002840094153" REF_mode_displacement=-0.09777777777777777 label_source="fixed-cell analytic Landau field-switching toy; not DFT or experiment" config_type=train_d_6_ez_13 pbc="T T T"
Ba       0.00000000       0.00000000       0.00000000       0.00000000       0.00000000       0.00000000
Ti       1.95000000       1.95000000       1.95222222       0.00000000       0.00000000       0.35179969
O        1.95000000       1.95000000       0.00000000       0.00000000       0.00000000       0.00000000
O        1.95000000       0.00000000       2.05000000       0.00000000       0.00000000       0.00000000
O        0.00000000       1.95000000       2.05000000       0.00000000       0.00000000       0.00000000
5
Lattice="3.9 0.0 0.0 0.0 3.9 0.0 0.0 0.0 4.1" Properties=species:S:1:pos:R:3:REF_forces:R:3 REF_energy=0.07087702401583618 REF_electric_field="0.0 0.0 0.12" REF_polarization="0.0 0.0 -0.009094002840094153" REF_mode_displacement=-0.09777777777777777 label_source="fixed-cell analytic Landau field-switching toy; not DFT or experiment" config_type=train_d_6_ez_14 pbc="T T T"
Ba       0.00000000       0.00000000       0.00000000       0.00000000       0.00000000       0.00000000
Ti       1.95000000       1.95000000       1.95222222       0.00000000       0.00000000       0.46779969
O        1.95000000       1.95000000       0.00000000       0.00000000       0.00000000       0.00000000
O        1.95000000       0.00000000       2.05000000       0.00000000       0.00000000       0.00000000
O        0.00000000       1.95000000       2.05000000       0.00000000       0.00000000       0.00000000
5
Lattice="3.9 0.0 0.0 0.0 3.9 0.0 0.0 0.0 4.1" Properties=species:S:1:pos:R:3:REF_forces:R:3 REF_energy=-0.04122609015393995 REF_electric_field="0.0 0.0 -0.12" REF_polarization="0.0 0.0 -0.006820502130070616" REF_mode_displacement=-0.07333333333333333 label_source="fixed-cell analytic Landau field-switching toy; not DFT or experiment" config_type=train_d_7_ez_0 pbc="T T T"
Ba       0.00000000       0.00000000       0.00000000       0.00000000       0.00000000       0.00000000
Ti       1.95000000       1.95000000       1.97666667       0.00000000       0.00000000      -1.01507293
O        1.95000000       1.95000000       0.00000000       0.00000000       0.00000000       0.00000000
O        1.95000000       0.00000000       2.05000000       0.00000000       0.00000000       0.00000000
O        0.00000000       1.95000000       2.05000000       0.00000000       0.00000000       0.00000000
5
Lattice="3.9 0.0 0.0 0.0 3.9 0.0 0.0 0.0 4.1" Properties=species:S:1:pos:R:3:REF_forces:R:3 REF_energy=-0.03271942348727329 REF_electric_field="0.0 0.0 -0.1" REF_polarization="0.0 0.0 -0.006820502130070616" REF_mode_displacement=-0.07333333333333333 label_source="fixed-cell analytic Landau field-switching toy; not DFT or experiment" config_type=train_d_7_ez_1 pbc="T T T"
Ba       0.00000000       0.00000000       0.00000000       0.00000000       0.00000000       0.00000000
Ti       1.95000000       1.95000000       1.97666667       0.00000000       0.00000000      -0.89907293
O        1.95000000       1.95000000       0.00000000       0.00000000       0.00000000       0.00000000
O        1.95000000       0.00000000       2.05000000       0.00000000       0.00000000       0.00000000
O        0.00000000       1.95000000       2.05000000       0.00000000       0.00000000       0.00000000
5
Lattice="3.9 0.0 0.0 0.0 3.9 0.0 0.0 0.0 4.1" Properties=species:S:1:pos:R:3:REF_forces:R:3 REF_energy=-0.02421275682060662 REF_electric_field="0.0 0.0 -0.08" REF_polarization="0.0 0.0 -0.006820502130070616" REF_mode_displacement=-0.07333333333333333 label_source="fixed-cell analytic Landau field-switching toy; not DFT or experiment" config_type=train_d_7_ez_2 pbc="T T T"
Ba       0.00000000       0.00000000       0.00000000       0.00000000       0.00000000       0.00000000
Ti       1.95000000       1.95000000       1.97666667       0.00000000       0.00000000      -0.78307293
O        1.95000000       1.95000000       0.00000000       0.00000000       0.00000000       0.00000000
O        1.95000000       0.00000000       2.05000000       0.00000000       0.00000000       0.00000000
O        0.00000000       1.95000000       2.05000000       0.00000000       0.00000000       0.00000000
5
Lattice="3.9 0.0 0.0 0.0 3.9 0.0 0.0 0.0 4.1" Properties=species:S:1:pos:R:3:REF_forces:R:3 REF_energy=-0.01570609015393995 REF_electric_field="0.0 0.0 -0.06" REF_polarization="0.0 0.0 -0.006820502130070616" REF_mode_displacement=-0.07333333333333333 label_source="fixed-cell analytic Landau field-switching toy; not DFT or experiment" config_type=train_d_7_ez_3 pbc="T T T"
Ba       0.00000000       0.00000000       0.00000000       0.00000000       0.00000000       0.00000000
Ti       1.95000000       1.95000000       1.97666667       0.00000000       0.00000000      -0.66707293
O        1.95000000       1.95000000       0.00000000       0.00000000       0.00000000       0.00000000
O        1.95000000       0.00000000       2.05000000       0.00000000       0.00000000       0.00000000
O        0.00000000       1.95000000       2.05000000       0.00000000       0.00000000       0.00000000
5
Lattice="3.9 0.0 0.0 0.0 3.9 0.0 0.0 0.0 4.1" Properties=species:S:1:pos:R:3:REF_forces:R:3 REF_energy=-0.01145275682060662 REF_electric_field="0.0 0.0 -0.05" REF_polarization="0.0 0.0 -0.006820502130070616" REF_mode_displacement=-0.07333333333333333 label_source="fixed-cell analytic Landau field-switching toy; not DFT or experiment" config_type=train_d_7_ez_4 pbc="T T T"
Ba       0.00000000       0.00000000       0.00000000       0.00000000       0.00000000       0.00000000
Ti       1.95000000       1.95000000       1.97666667       0.00000000       0.00000000      -0.60907293
O        1.95000000       1.95000000       0.00000000       0.00000000       0.00000000       0.00000000
O        1.95000000       0.00000000       2.05000000       0.00000000       0.00000000       0.00000000
O        0.00000000       1.95000000       2.05000000       0.00000000       0.00000000       0.00000000
5
Lattice="3.9 0.0 0.0 0.0 3.9 0.0 0.0 0.0 4.1" Properties=species:S:1:pos:R:3:REF_forces:R:3 REF_energy=-0.007199423487273286 REF_electric_field="0.0 0.0 -0.04" REF_polarization="0.0 0.0 -0.006820502130070616" REF_mode_displacement=-0.07333333333333333 label_source="fixed-cell analytic Landau field-switching toy; not DFT or experiment" config_type=train_d_7_ez_5 pbc="T T T"
Ba       0.00000000       0.00000000       0.00000000       0.00000000       0.00000000       0.00000000
Ti       1.95000000       1.95000000       1.97666667       0.00000000       0.00000000      -0.55107293
O        1.95000000       1.95000000       0.00000000       0.00000000       0.00000000       0.00000000
O        1.95000000       0.00000000       2.05000000       0.00000000       0.00000000       0.00000000
O        0.00000000       1.95000000       2.05000000       0.00000000       0.00000000       0.00000000
5
Lattice="3.9 0.0 0.0 0.0 3.9 0.0 0.0 0.0 4.1" Properties=species:S:1:pos:R:3:REF_forces:R:3 REF_energy=0.0013072431793933817 REF_electric_field="0.0 0.0 -0.02" REF_polarization="0.0 0.0 -0.006820502130070616" REF_mode_displacement=-0.07333333333333333 label_source="fixed-cell analytic Landau field-switching toy; not DFT or experiment" config_type=train_d_7_ez_6 pbc="T T T"
Ba       0.00000000       0.00000000       0.00000000       0.00000000       0.00000000       0.00000000
Ti       1.95000000       1.95000000       1.97666667       0.00000000       0.00000000      -0.43507293
O        1.95000000       1.95000000       0.00000000       0.00000000       0.00000000       0.00000000
O        1.95000000       0.00000000       2.05000000       0.00000000       0.00000000       0.00000000
O        0.00000000       1.95000000       2.05000000       0.00000000       0.00000000       0.00000000
5
Lattice="3.9 0.0 0.0 0.0 3.9 0.0 0.0 0.0 4.1" Properties=species:S:1:pos:R:3:REF_forces:R:3 REF_energy=0.00981390984606005 REF_electric_field="0.0 0.0 0.0" REF_polarization="0.0 0.0 -0.006820502130070616" REF_mode_displacement=-0.07333333333333333 label_source="fixed-cell analytic Landau field-switching toy; not DFT or experiment" config_type=train_d_7_ez_7 pbc="T T T"
Ba       0.00000000       0.00000000       0.00000000       0.00000000       0.00000000       0.00000000
Ti       1.95000000       1.95000000       1.97666667       0.00000000       0.00000000      -0.31907293
O        1.95000000       1.95000000       0.00000000       0.00000000       0.00000000       0.00000000
O        1.95000000       0.00000000       2.05000000       0.00000000       0.00000000       0.00000000
O        0.00000000       1.95000000       2.05000000       0.00000000       0.00000000       0.00000000
5
Lattice="3.9 0.0 0.0 0.0 3.9 0.0 0.0 0.0 4.1" Properties=species:S:1:pos:R:3:REF_forces:R:3 REF_energy=0.018320576512726717 REF_electric_field="0.0 0.0 0.02" REF_polarization="0.0 0.0 -0.006820502130070616" REF_mode_displacement=-0.07333333333333333 label_source="fixed-cell analytic Landau field-switching toy; not DFT or experiment" config_type=train_d_7_ez_8 pbc="T T T"
Ba       0.00000000       0.00000000       0.00000000       0.00000000       0.00000000       0.00000000
Ti       1.95000000       1.95000000       1.97666667       0.00000000       0.00000000      -0.20307293
O        1.95000000       1.95000000       0.00000000       0.00000000       0.00000000       0.00000000
O        1.95000000       0.00000000       2.05000000       0.00000000       0.00000000       0.00000000
O        0.00000000       1.95000000       2.05000000       0.00000000       0.00000000       0.00000000
5
Lattice="3.9 0.0 0.0 0.0 3.9 0.0 0.0 0.0 4.1" Properties=species:S:1:pos:R:3:REF_forces:R:3 REF_energy=0.026827243179393383 REF_electric_field="0.0 0.0 0.04" REF_polarization="0.0 0.0 -0.006820502130070616" REF_mode_displacement=-0.07333333333333333 label_source="fixed-cell analytic Landau field-switching toy; not DFT or experiment" config_type=train_d_7_ez_9 pbc="T T T"
Ba       0.00000000       0.00000000       0.00000000       0.00000000       0.00000000       0.00000000
Ti       1.95000000       1.95000000       1.97666667       0.00000000       0.00000000      -0.08707293
O        1.95000000       1.95000000       0.00000000       0.00000000       0.00000000       0.00000000
O        1.95000000       0.00000000       2.05000000       0.00000000       0.00000000       0.00000000
O        0.00000000       1.95000000       2.05000000       0.00000000       0.00000000       0.00000000
5
Lattice="3.9 0.0 0.0 0.0 3.9 0.0 0.0 0.0 4.1" Properties=species:S:1:pos:R:3:REF_forces:R:3 REF_energy=0.03108057651272672 REF_electric_field="0.0 0.0 0.05" REF_polarization="0.0 0.0 -0.006820502130070616" REF_mode_displacement=-0.07333333333333333 label_source="fixed-cell analytic Landau field-switching toy; not DFT or experiment" config_type=train_d_7_ez_10 pbc="T T T"
Ba       0.00000000       0.00000000       0.00000000       0.00000000       0.00000000       0.00000000
Ti       1.95000000       1.95000000       1.97666667       0.00000000       0.00000000      -0.02907293
O        1.95000000       1.95000000       0.00000000       0.00000000       0.00000000       0.00000000
O        1.95000000       0.00000000       2.05000000       0.00000000       0.00000000       0.00000000
O        0.00000000       1.95000000       2.05000000       0.00000000       0.00000000       0.00000000
5
Lattice="3.9 0.0 0.0 0.0 3.9 0.0 0.0 0.0 4.1" Properties=species:S:1:pos:R:3:REF_forces:R:3 REF_energy=0.03533390984606005 REF_electric_field="0.0 0.0 0.06" REF_polarization="0.0 0.0 -0.006820502130070616" REF_mode_displacement=-0.07333333333333333 label_source="fixed-cell analytic Landau field-switching toy; not DFT or experiment" config_type=train_d_7_ez_11 pbc="T T T"
Ba       0.00000000       0.00000000       0.00000000       0.00000000       0.00000000       0.00000000
Ti       1.95000000       1.95000000       1.97666667       0.00000000       0.00000000       0.02892707
O        1.95000000       1.95000000       0.00000000       0.00000000       0.00000000       0.00000000
O        1.95000000       0.00000000       2.05000000       0.00000000       0.00000000       0.00000000
O        0.00000000       1.95000000       2.05000000       0.00000000       0.00000000       0.00000000
5
Lattice="3.9 0.0 0.0 0.0 3.9 0.0 0.0 0.0 4.1" Properties=species:S:1:pos:R:3:REF_forces:R:3 REF_energy=0.04384057651272672 REF_electric_field="0.0 0.0 0.08" REF_polarization="0.0 0.0 -0.006820502130070616" REF_mode_displacement=-0.07333333333333333 label_source="fixed-cell analytic Landau field-switching toy; not DFT or experiment" config_type=train_d_7_ez_12 pbc="T T T"
Ba       0.00000000       0.00000000       0.00000000       0.00000000       0.00000000       0.00000000
Ti       1.95000000       1.95000000       1.97666667       0.00000000       0.00000000       0.14492707
O        1.95000000       1.95000000       0.00000000       0.00000000       0.00000000       0.00000000
O        1.95000000       0.00000000       2.05000000       0.00000000       0.00000000       0.00000000
O        0.00000000       1.95000000       2.05000000       0.00000000       0.00000000       0.00000000
5
Lattice="3.9 0.0 0.0 0.0 3.9 0.0 0.0 0.0 4.1" Properties=species:S:1:pos:R:3:REF_forces:R:3 REF_energy=0.05234724317939339 REF_electric_field="0.0 0.0 0.1" REF_polarization="0.0 0.0 -0.006820502130070616" REF_mode_displacement=-0.07333333333333333 label_source="fixed-cell analytic Landau field-switching toy; not DFT or experiment" config_type=train_d_7_ez_13 pbc="T T T"
Ba       0.00000000       0.00000000       0.00000000       0.00000000       0.00000000       0.00000000
Ti       1.95000000       1.95000000       1.97666667       0.00000000       0.00000000       0.26092707
O        1.95000000       1.95000000       0.00000000       0.00000000       0.00000000       0.00000000
O        1.95000000       0.00000000       2.05000000       0.00000000       0.00000000       0.00000000
O        0.00000000       1.95000000       2.05000000       0.00000000       0.00000000       0.00000000
5
Lattice="3.9 0.0 0.0 0.0 3.9 0.0 0.0 0.0 4.1" Properties=species:S:1:pos:R:3:REF_forces:R:3 REF_energy=0.06085390984606005 REF_electric_field="0.0 0.0 0.12" REF_polarization="0.0 0.0 -0.006820502130070616" REF_mode_displacement=-0.07333333333333333 label_source="fixed-cell analytic Landau field-switching toy; not DFT or experiment" config_type=train_d_7_ez_14 pbc="T T T"
Ba       0.00000000       0.00000000       0.00000000       0.00000000       0.00000000       0.00000000
Ti       1.95000000       1.95000000       1.97666667       0.00000000       0.00000000       0.37692707
O        1.95000000       1.95000000       0.00000000       0.00000000       0.00000000       0.00000000
O        1.95000000       0.00000000       2.05000000       0.00000000       0.00000000       0.00000000
O        0.00000000       1.95000000       2.05000000       0.00000000       0.00000000       0.00000000
5
Lattice="3.9 0.0 0.0 0.0 3.9 0.0 0.0 0.0 4.1" Properties=species:S:1:pos:R:3:REF_forces:R:3 REF_energy=-0.03710918337160644 REF_electric_field="0.0 0.0 -0.12" REF_polarization="0.0 0.0 -0.006443703394044031" REF_mode_displacement=-0.06928203230275509 label_source="fixed-cell analytic Landau field-switching toy; not DFT or experiment" config_type=train_d_8_ez_0 pbc="T T T"
Ba       0.00000000       0.00000000       0.00000000       0.00000000       0.00000000       0.00000000
Ti       1.95000000       1.95000000       1.98071797       0.00000000       0.00000000      -1.01675015
O        1.95000000       1.95000000       0.00000000       0.00000000       0.00000000       0.00000000
O        1.95000000       0.00000000       2.05000000       0.00000000       0.00000000       0.00000000
O        0.00000000       1.95000000       2.05000000       0.00000000       0.00000000       0.00000000
5
Lattice="3.9 0.0 0.0 0.0 3.9 0.0 0.0 0.0 4.1" Properties=species:S:1:pos:R:3:REF_forces:R:3 REF_energy=-0.02907246762448685 REF_electric_field="0.0 0.0 -0.1" REF_polarization="0.0 0.0 -0.006443703394044031" REF_mode_displacement=-0.06928203230275509 label_source="fixed-cell analytic Landau field-switching toy; not DFT or experiment" config_type=train_d_8_ez_1 pbc="T T T"
Ba       0.00000000       0.00000000       0.00000000       0.00000000       0.00000000       0.00000000
Ti       1.95000000       1.95000000       1.98071797       0.00000000       0.00000000      -0.90075015
O        1.95000000       1.95000000       0.00000000       0.00000000       0.00000000       0.00000000
O        1.95000000       0.00000000       2.05000000       0.00000000       0.00000000       0.00000000
O        0.00000000       1.95000000       2.05000000       0.00000000       0.00000000       0.00000000
5
Lattice="3.9 0.0 0.0 0.0 3.9 0.0 0.0 0.0 4.1" Properties=species:S:1:pos:R:3:REF_forces:R:3 REF_energy=-0.021035751877367254 REF_electric_field="0.0 0.0 -0.08" REF_polarization="0.0 0.0 -0.006443703394044031" REF_mode_displacement=-0.06928203230275509 label_source="fixed-cell analytic Landau field-switching toy; not DFT or experiment" config_type=train_d_8_ez_2 pbc="T T T"
Ba       0.00000000       0.00000000       0.00000000       0.00000000       0.00000000       0.00000000
Ti       1.95000000       1.95000000       1.98071797       0.00000000       0.00000000      -0.78475015
O        1.95000000       1.95000000       0.00000000       0.00000000       0.00000000       0.00000000
O        1.95000000       0.00000000       2.05000000       0.00000000       0.00000000       0.00000000
O        0.00000000       1.95000000       2.05000000       0.00000000       0.00000000       0.00000000
5
Lattice="3.9 0.0 0.0 0.0 3.9 0.0 0.0 0.0 4.1" Properties=species:S:1:pos:R:3:REF_forces:R:3 REF_energy=-0.012999036130247665 REF_electric_field="0.0 0.0 -0.06" REF_polarization="0.0 0.0 -0.006443703394044031" REF_mode_displacement=-0.06928203230275509 label_source="fixed-cell analytic Landau field-switching toy; not DFT or experiment" config_type=train_d_8_ez_3 pbc="T T T"
Ba       0.00000000       0.00000000       0.00000000       0.00000000       0.00000000       0.00000000
Ti       1.95000000       1.95000000       1.98071797       0.00000000       0.00000000      -0.66875015
O        1.95000000       1.95000000       0.00000000       0.00000000       0.00000000       0.00000000
O        1.95000000       0.00000000       2.05000000       0.00000000       0.00000000       0.00000000
O        0.00000000       1.95000000       2.05000000       0.00000000       0.00000000       0.00000000
5
Lattice="3.9 0.0 0.0 0.0 3.9 0.0 0.0 0.0 4.1" Properties=species:S:1:pos:R:3:REF_forces:R:3 REF_energy=-0.008980678256687871 REF_electric_field="0.0 0.0 -0.05" REF_polarization="0.0 0.0 -0.006443703394044031" REF_mode_displacement=-0.06928203230275509 label_source="fixed-cell analytic Landau field-switching toy; not DFT or experiment" config_type=train_d_8_ez_4 pbc="T T T"
Ba       0.00000000       0.00000000       0.00000000       0.00000000       0.00000000       0.00000000
Ti       1.95000000       1.95000000       1.98071797       0.00000000       0.00000000      -0.61075015
O        1.95000000       1.95000000       0.00000000       0.00000000       0.00000000       0.00000000
O        1.95000000       0.00000000       2.05000000       0.00000000       0.00000000       0.00000000
O        0.00000000       1.95000000       2.05000000       0.00000000       0.00000000       0.00000000
5
Lattice="3.9 0.0 0.0 0.0 3.9 0.0 0.0 0.0 4.1" Properties=species:S:1:pos:R:3:REF_forces:R:3 REF_energy=-0.004962320383128074 REF_electric_field="0.0 0.0 -0.04" REF_polarization="0.0 0.0 -0.006443703394044031" REF_mode_displacement=-0.06928203230275509 label_source="fixed-cell analytic Landau field-switching toy; not DFT or experiment" config_type=train_d_8_ez_5 pbc="T T T"
Ba       0.00000000       0.00000000       0.00000000       0.00000000       0.00000000       0.00000000
Ti       1.95000000       1.95000000       1.98071797       0.00000000       0.00000000      -0.55275015
O        1.95000000       1.95000000       0.00000000       0.00000000       0.00000000       0.00000000
O        1.95000000       0.00000000       2.05000000       0.00000000       0.00000000       0.00000000
O        0.00000000       1.95000000       2.05000000       0.00000000       0.00000000       0.00000000
5
Lattice="3.9 0.0 0.0 0.0 3.9 0.0 0.0 0.0 4.1" Properties=species:S:1:pos:R:3:REF_forces:R:3 REF_energy=0.0030743953639915163 REF_electric_field="0.0 0.0 -0.02" REF_polarization="0.0 0.0 -0.006443703394044031" REF_mode_displacement=-0.06928203230275509 label_source="fixed-cell analytic Landau field-switching toy; not DFT or experiment" config_type=train_d_8_ez_6 pbc="T T T"
Ba       0.00000000       0.00000000       0.00000000       0.00000000       0.00000000       0.00000000
Ti       1.95000000       1.95000000       1.98071797       0.00000000       0.00000000      -0.43675015
O        1.95000000       1.95000000       0.00000000       0.00000000       0.00000000       0.00000000
O        1.95000000       0.00000000       2.05000000       0.00000000       0.00000000       0.00000000
O        0.00000000       1.95000000       2.05000000       0.00000000       0.00000000       0.00000000
5
Lattice="3.9 0.0 0.0 0.0 3.9 0.0 0.0 0.0 4.1" Properties=species:S:1:pos:R:3:REF_forces:R:3 REF_energy=0.011111111111111106 REF_electric_field="0.0 0.0 0.0" REF_polarization="0.0 0.0 -0.006443703394044031" REF_mode_displacement=-0.06928203230275509 label_source="fixed-cell analytic Landau field-switching toy; not DFT or experiment" config_type=train_d_8_ez_7 pbc="T T T"
Ba       0.00000000       0.00000000       0.00000000       0.00000000       0.00000000       0.00000000
Ti       1.95000000       1.95000000       1.98071797       0.00000000       0.00000000      -0.32075015
O        1.95000000       1.95000000       0.00000000       0.00000000       0.00000000       0.00000000
O        1.95000000       0.00000000       2.05000000       0.00000000       0.00000000       0.00000000
O        0.00000000       1.95000000       2.05000000       0.00000000       0.00000000       0.00000000
5
Lattice="3.9 0.0 0.0 0.0 3.9 0.0 0.0 0.0 4.1" Properties=species:S:1:pos:R:3:REF_forces:R:3 REF_energy=0.019147826858230695 REF_electric_field="0.0 0.0 0.02" REF_polarization="0.0 0.0 -0.006443703394044031" REF_mode_displacement=-0.06928203230275509 label_source="fixed-cell analytic Landau field-switching toy; not DFT or experiment" config_type=train_d_8_ez_8 pbc="T T T"
Ba       0.00000000       0.00000000       0.00000000       0.00000000       0.00000000       0.00000000
Ti       1.95000000       1.95000000       1.98071797       0.00000000       0.00000000      -0.20475015
O        1.95000000       1.95000000       0.00000000       0.00000000       0.00000000       0.00000000
O        1.95000000       0.00000000       2.05000000       0.00000000       0.00000000       0.00000000
O        0.00000000       1.95000000       2.05000000       0.00000000       0.00000000       0.00000000
5
Lattice="3.9 0.0 0.0 0.0 3.9 0.0 0.0 0.0 4.1" Properties=species:S:1:pos:R:3:REF_forces:R:3 REF_energy=0.027184542605350286 REF_electric_field="0.0 0.0 0.04" REF_polarization="0.0 0.0 -0.006443703394044031" REF_mode_displacement=-0.06928203230275509 label_source="fixed-cell analytic Landau field-switching toy; not DFT or experiment" config_type=train_d_8_ez_9 pbc="T T T"
Ba       0.00000000       0.00000000       0.00000000       0.00000000       0.00000000       0.00000000
Ti       1.95000000       1.95000000       1.98071797       0.00000000       0.00000000      -0.08875015
O        1.95000000       1.95000000       0.00000000       0.00000000       0.00000000       0.00000000
O        1.95000000       0.00000000       2.05000000       0.00000000       0.00000000       0.00000000
O        0.00000000       1.95000000       2.05000000       0.00000000       0.00000000       0.00000000
5
Lattice="3.9 0.0 0.0 0.0 3.9 0.0 0.0 0.0 4.1" Properties=species:S:1:pos:R:3:REF_forces:R:3 REF_energy=0.031202900478910084 REF_electric_field="0.0 0.0 0.05" REF_polarization="0.0 0.0 -0.006443703394044031" REF_mode_displacement=-0.06928203230275509 label_source="fixed-cell analytic Landau field-switching toy; not DFT or experiment" config_type=train_d_8_ez_10 pbc="T T T"
Ba       0.00000000       0.00000000       0.00000000       0.00000000       0.00000000       0.00000000
Ti       1.95000000       1.95000000       1.98071797       0.00000000       0.00000000      -0.03075015
O        1.95000000       1.95000000       0.00000000       0.00000000       0.00000000       0.00000000
O        1.95000000       0.00000000       2.05000000       0.00000000       0.00000000       0.00000000
O        0.00000000       1.95000000       2.05000000       0.00000000       0.00000000       0.00000000
5
Lattice="3.9 0.0 0.0 0.0 3.9 0.0 0.0 0.0 4.1" Properties=species:S:1:pos:R:3:REF_forces:R:3 REF_energy=0.03522125835246988 REF_electric_field="0.0 0.0 0.06" REF_polarization="0.0 0.0 -0.006443703394044031" REF_mode_displacement=-0.06928203230275509 label_source="fixed-cell analytic Landau field-switching toy; not DFT or experiment" config_type=train_d_8_ez_11 pbc="T T T"
Ba       0.00000000       0.00000000       0.00000000       0.00000000       0.00000000       0.00000000
Ti       1.95000000       1.95000000       1.98071797       0.00000000       0.00000000       0.02724985
O        1.95000000       1.95000000       0.00000000       0.00000000       0.00000000       0.00000000
O        1.95000000       0.00000000       2.05000000       0.00000000       0.00000000       0.00000000
O        0.00000000       1.95000000       2.05000000       0.00000000       0.00000000       0.00000000
5
Lattice="3.9 0.0 0.0 0.0 3.9 0.0 0.0 0.0 4.1" Properties=species:S:1:pos:R:3:REF_forces:R:3 REF_energy=0.043257974099589466 REF_electric_field="0.0 0.0 0.08" REF_polarization="0.0 0.0 -0.006443703394044031" REF_mode_displacement=-0.06928203230275509 label_source="fixed-cell analytic Landau field-switching toy; not DFT or experiment" config_type=train_d_8_ez_12 pbc="T T T"
Ba       0.00000000       0.00000000       0.00000000       0.00000000       0.00000000       0.00000000
Ti       1.95000000       1.95000000       1.98071797       0.00000000       0.00000000       0.14324985
O        1.95000000       1.95000000       0.00000000       0.00000000       0.00000000       0.00000000
O        1.95000000       0.00000000       2.05000000       0.00000000       0.00000000       0.00000000
O        0.00000000       1.95000000       2.05000000       0.00000000       0.00000000       0.00000000
5
Lattice="3.9 0.0 0.0 0.0 3.9 0.0 0.0 0.0 4.1" Properties=species:S:1:pos:R:3:REF_forces:R:3 REF_energy=0.05129468984670906 REF_electric_field="0.0 0.0 0.1" REF_polarization="0.0 0.0 -0.006443703394044031" REF_mode_displacement=-0.06928203230275509 label_source="fixed-cell analytic Landau field-switching toy; not DFT or experiment" config_type=train_d_8_ez_13 pbc="T T T"
Ba       0.00000000       0.00000000       0.00000000       0.00000000       0.00000000       0.00000000
Ti       1.95000000       1.95000000       1.98071797       0.00000000       0.00000000       0.25924985
O        1.95000000       1.95000000       0.00000000       0.00000000       0.00000000       0.00000000
O        1.95000000       0.00000000       2.05000000       0.00000000       0.00000000       0.00000000
O        0.00000000       1.95000000       2.05000000       0.00000000       0.00000000       0.00000000
5
Lattice="3.9 0.0 0.0 0.0 3.9 0.0 0.0 0.0 4.1" Properties=species:S:1:pos:R:3:REF_forces:R:3 REF_energy=0.05933140559382865 REF_electric_field="0.0 0.0 0.12" REF_polarization="0.0 0.0 -0.006443703394044031" REF_mode_displacement=-0.06928203230275509 label_source="fixed-cell analytic Landau field-switching toy; not DFT or experiment" config_type=train_d_8_ez_14 pbc="T T T"
Ba       0.00000000       0.00000000       0.00000000       0.00000000       0.00000000       0.00000000
Ti       1.95000000       1.95000000       1.98071797       0.00000000       0.00000000       0.37524985
O        1.95000000       1.95000000       0.00000000       0.00000000       0.00000000       0.00000000
O        1.95000000       0.00000000       2.05000000       0.00000000       0.00000000       0.00000000
O        0.00000000       1.95000000       2.05000000       0.00000000       0.00000000       0.00000000
5
Lattice="3.9 0.0 0.0 0.0 3.9 0.0 0.0 0.0 4.1" Properties=species:S:1:pos:R:3:REF_forces:R:3 REF_energy=-0.016636965834401163 REF_electric_field="0.0 0.0 -0.12" REF_polarization="0.0 0.0 -0.004547001420047075" REF_mode_displacement=-0.04888888888888887 label_source="fixed-cell analytic Landau field-switching toy; not DFT or experiment" config_type=train_d_9_ez_0 pbc="T T T"
Ba       0.00000000       0.00000000       0.00000000       0.00000000       0.00000000       0.00000000
Ti       1.95000000       1.95000000       2.00111111       0.00000000       0.00000000      -0.97915467
O        1.95000000       1.95000000       0.00000000       0.00000000       0.00000000       0.00000000
O        1.95000000       0.00000000       2.05000000       0.00000000       0.00000000       0.00000000
O        0.00000000       1.95000000       2.05000000       0.00000000       0.00000000       0.00000000
5
Lattice="3.9 0.0 0.0 0.0 3.9 0.0 0.0 0.0 4.1" Properties=species:S:1:pos:R:3:REF_forces:R:3 REF_energy=-0.01096585472329006 REF_electric_field="0.0 0.0 -0.1" REF_polarization="0.0 0.0 -0.004547001420047075" REF_mode_displacement=-0.04888888888888887 label_source="fixed-cell analytic Landau field-switching toy; not DFT or experiment" config_type=train_d_9_ez_1 pbc="T T T"
Ba       0.00000000       0.00000000       0.00000000       0.00000000       0.00000000       0.00000000
Ti       1.95000000       1.95000000       2.00111111       0.00000000       0.00000000      -0.86315467
O        1.95000000       1.95000000       0.00000000       0.00000000       0.00000000       0.00000000
O        1.95000000       0.00000000       2.05000000       0.00000000       0.00000000       0.00000000
O        0.00000000       1.95000000       2.05000000       0.00000000       0.00000000       0.00000000
5
Lattice="3.9 0.0 0.0 0.0 3.9 0.0 0.0 0.0 4.1" Properties=species:S:1:pos:R:3:REF_forces:R:3 REF_energy=-0.005294743612178951 REF_electric_field="0.0 0.0 -0.08" REF_polarization="0.0 0.0 -0.004547001420047075" REF_mode_displacement=-0.04888888888888887 label_source="fixed-cell analytic Landau field-switching toy; not DFT or experiment" config_type=train_d_9_ez_2 pbc="T T T"
Ba       0.00000000       0.00000000       0.00000000       0.00000000       0.00000000       0.00000000
Ti       1.95000000       1.95000000       2.00111111       0.00000000       0.00000000      -0.74715467
O        1.95000000       1.95000000       0.00000000       0.00000000       0.00000000       0.00000000
O        1.95000000       0.00000000       2.05000000       0.00000000       0.00000000       0.00000000
O        0.00000000       1.95000000       2.05000000       0.00000000       0.00000000       0.00000000
5
Lattice="3.9 0.0 0.0 0.0 3.9 0.0 0.0 0.0 4.1" Properties=species:S:1:pos:R:3:REF_forces:R:3 REF_energy=0.0003763674989321619 REF_electric_field="0.0 0.0 -0.06" REF_polarization="0.0 0.0 -0.004547001420047075" REF_mode_displacement=-0.04888888888888887 label_source="fixed-cell analytic Landau field-switching toy; not DFT or experiment" config_type=train_d_9_ez_3 pbc="T T T"
Ba       0.00000000       0.00000000       0.00000000       0.00000000       0.00000000       0.00000000
Ti       1.95000000       1.95000000       2.00111111       0.00000000       0.00000000      -0.63115467
O        1.95000000       1.95000000       0.00000000       0.00000000       0.00000000       0.00000000
O        1.95000000       0.00000000       2.05000000       0.00000000       0.00000000       0.00000000
O        0.00000000       1.95000000       2.05000000       0.00000000       0.00000000       0.00000000
5
Lattice="3.9 0.0 0.0 0.0 3.9 0.0 0.0 0.0 4.1" Properties=species:S:1:pos:R:3:REF_forces:R:3 REF_energy=0.003211923054487713 REF_electric_field="0.0 0.0 -0.05" REF_polarization="0.0 0.0 -0.004547001420047075" REF_mode_displacement=-0.04888888888888887 label_source="fixed-cell analytic Landau field-switching toy; not DFT or experiment" config_type=train_d_9_ez_4 pbc="T T T"
Ba       0.00000000       0.00000000       0.00000000       0.00000000       0.00000000       0.00000000
Ti       1.95000000       1.95000000       2.00111111       0.00000000       0.00000000      -0.57315467
O        1.95000000       1.95000000       0.00000000       0.00000000       0.00000000       0.00000000
O        1.95000000       0.00000000       2.05000000       0.00000000       0.00000000       0.00000000
O        0.00000000       1.95000000       2.05000000       0.00000000       0.00000000       0.00000000
5
Lattice="3.9 0.0 0.0 0.0 3.9 0.0 0.0 0.0 4.1" Properties=species:S:1:pos:R:3:REF_forces:R:3 REF_energy=0.006047478610043268 REF_electric_field="0.0 0.0 -0.04" REF_polarization="0.0 0.0 -0.004547001420047075" REF_mode_displacement=-0.04888888888888887 label_source="fixed-cell analytic Landau field-switching toy; not DFT or experiment" config_type=train_d_9_ez_5 pbc="T T T"
Ba       0.00000000       0.00000000       0.00000000       0.00000000       0.00000000       0.00000000
Ti       1.95000000       1.95000000       2.00111111       0.00000000       0.00000000      -0.51515467
O        1.95000000       1.95000000       0.00000000       0.00000000       0.00000000       0.00000000
O        1.95000000       0.00000000       2.05000000       0.00000000       0.00000000       0.00000000
O        0.00000000       1.95000000       2.05000000       0.00000000       0.00000000       0.00000000
5
Lattice="3.9 0.0 0.0 0.0 3.9 0.0 0.0 0.0 4.1" Properties=species:S:1:pos:R:3:REF_forces:R:3 REF_energy=0.011718589721154377 REF_electric_field="0.0 0.0 -0.02" REF_polarization="0.0 0.0 -0.004547001420047075" REF_mode_displacement=-0.04888888888888887 label_source="fixed-cell analytic Landau field-switching toy; not DFT or experiment" config_type=train_d_9_ez_6 pbc="T T T"
Ba       0.00000000       0.00000000       0.00000000       0.00000000       0.00000000       0.00000000
Ti       1.95000000       1.95000000       2.00111111       0.00000000       0.00000000      -0.39915467
O        1.95000000       1.95000000       0.00000000       0.00000000       0.00000000       0.00000000
O        1.95000000       0.00000000       2.05000000       0.00000000       0.00000000       0.00000000
O        0.00000000       1.95000000       2.05000000       0.00000000       0.00000000       0.00000000
5
Lattice="3.9 0.0 0.0 0.0 3.9 0.0 0.0 0.0 4.1" Properties=species:S:1:pos:R:3:REF_forces:R:3 REF_energy=0.017389700832265487 REF_electric_field="0.0 0.0 0.0" REF_polarization="0.0 0.0 -0.004547001420047075" REF_mode_displacement=-0.04888888888888887 label_source="fixed-cell analytic Landau field-switching toy; not DFT or experiment" config_type=train_d_9_ez_7 pbc="T T T"
Ba       0.00000000       0.00000000       0.00000000       0.00000000       0.00000000       0.00000000
Ti       1.95000000       1.95000000       2.00111111       0.00000000       0.00000000      -0.28315467
O        1.95000000       1.95000000       0.00000000       0.00000000       0.00000000       0.00000000
O        1.95000000       0.00000000       2.05000000       0.00000000       0.00000000       0.00000000
O        0.00000000       1.95000000       2.05000000       0.00000000       0.00000000       0.00000000
5
Lattice="3.9 0.0 0.0 0.0 3.9 0.0 0.0 0.0 4.1" Properties=species:S:1:pos:R:3:REF_forces:R:3 REF_energy=0.023060811943376596 REF_electric_field="0.0 0.0 0.02" REF_polarization="0.0 0.0 -0.004547001420047075" REF_mode_displacement=-0.04888888888888887 label_source="fixed-cell analytic Landau field-switching toy; not DFT or experiment" config_type=train_d_9_ez_8 pbc="T T T"
Ba       0.00000000       0.00000000       0.00000000       0.00000000       0.00000000       0.00000000
Ti       1.95000000       1.95000000       2.00111111       0.00000000       0.00000000      -0.16715467
O        1.95000000       1.95000000       0.00000000       0.00000000       0.00000000       0.00000000
O        1.95000000       0.00000000       2.05000000       0.00000000       0.00000000       0.00000000
O        0.00000000       1.95000000       2.05000000       0.00000000       0.00000000       0.00000000
5
Lattice="3.9 0.0 0.0 0.0 3.9 0.0 0.0 0.0 4.1" Properties=species:S:1:pos:R:3:REF_forces:R:3 REF_energy=0.028731923054487706 REF_electric_field="0.0 0.0 0.04" REF_polarization="0.0 0.0 -0.004547001420047075" REF_mode_displacement=-0.04888888888888887 label_source="fixed-cell analytic Landau field-switching toy; not DFT or experiment" config_type=train_d_9_ez_9 pbc="T T T"
Ba       0.00000000       0.00000000       0.00000000       0.00000000       0.00000000       0.00000000
Ti       1.95000000       1.95000000       2.00111111       0.00000000       0.00000000      -0.05115467
O        1.95000000       1.95000000       0.00000000       0.00000000       0.00000000       0.00000000
O        1.95000000       0.00000000       2.05000000       0.00000000       0.00000000       0.00000000
O        0.00000000       1.95000000       2.05000000       0.00000000       0.00000000       0.00000000
5
Lattice="3.9 0.0 0.0 0.0 3.9 0.0 0.0 0.0 4.1" Properties=species:S:1:pos:R:3:REF_forces:R:3 REF_energy=0.03156747861004326 REF_electric_field="0.0 0.0 0.05" REF_polarization="0.0 0.0 -0.004547001420047075" REF_mode_displacement=-0.04888888888888887 label_source="fixed-cell analytic Landau field-switching toy; not DFT or experiment" config_type=train_d_9_ez_10 pbc="T T T"
Ba       0.00000000       0.00000000       0.00000000       0.00000000       0.00000000       0.00000000
Ti       1.95000000       1.95000000       2.00111111       0.00000000       0.00000000       0.00684533
O        1.95000000       1.95000000       0.00000000       0.00000000       0.00000000       0.00000000
O        1.95000000       0.00000000       2.05000000       0.00000000       0.00000000       0.00000000
O        0.00000000       1.95000000       2.05000000       0.00000000       0.00000000       0.00000000
5
Lattice="3.9 0.0 0.0 0.0 3.9 0.0 0.0 0.0 4.1" Properties=species:S:1:pos:R:3:REF_forces:R:3 REF_energy=0.03440303416559881 REF_electric_field="0.0 0.0 0.06" REF_polarization="0.0 0.0 -0.004547001420047075" REF_mode_displacement=-0.04888888888888887 label_source="fixed-cell analytic Landau field-switching toy; not DFT or experiment" config_type=train_d_9_ez_11 pbc="T T T"
Ba       0.00000000       0.00000000       0.00000000       0.00000000       0.00000000       0.00000000
Ti       1.95000000       1.95000000       2.00111111       0.00000000       0.00000000       0.06484533
O        1.95000000       1.95000000       0.00000000       0.00000000       0.00000000       0.00000000
O        1.95000000       0.00000000       2.05000000       0.00000000       0.00000000       0.00000000
O        0.00000000       1.95000000       2.05000000       0.00000000       0.00000000       0.00000000
5
Lattice="3.9 0.0 0.0 0.0 3.9 0.0 0.0 0.0 4.1" Properties=species:S:1:pos:R:3:REF_forces:R:3 REF_energy=0.040074145276709924 REF_electric_field="0.0 0.0 0.08" REF_polarization="0.0 0.0 -0.004547001420047075" REF_mode_displacement=-0.04888888888888887 label_source="fixed-cell analytic Landau field-switching toy; not DFT or experiment" config_type=train_d_9_ez_12 pbc="T T T"
Ba       0.00000000       0.00000000       0.00000000       0.00000000       0.00000000       0.00000000
Ti       1.95000000       1.95000000       2.00111111       0.00000000       0.00000000       0.18084533
O        1.95000000       1.95000000       0.00000000       0.00000000       0.00000000       0.00000000
O        1.95000000       0.00000000       2.05000000       0.00000000       0.00000000       0.00000000
O        0.00000000       1.95000000       2.05000000       0.00000000       0.00000000       0.00000000
5
Lattice="3.9 0.0 0.0 0.0 3.9 0.0 0.0 0.0 4.1" Properties=species:S:1:pos:R:3:REF_forces:R:3 REF_energy=0.04574525638782104 REF_electric_field="0.0 0.0 0.1" REF_polarization="0.0 0.0 -0.004547001420047075" REF_mode_displacement=-0.04888888888888887 label_source="fixed-cell analytic Landau field-switching toy; not DFT or experiment" config_type=train_d_9_ez_13 pbc="T T T"
Ba       0.00000000       0.00000000       0.00000000       0.00000000       0.00000000       0.00000000
Ti       1.95000000       1.95000000       2.00111111       0.00000000       0.00000000       0.29684533
O        1.95000000       1.95000000       0.00000000       0.00000000       0.00000000       0.00000000
O        1.95000000       0.00000000       2.05000000       0.00000000       0.00000000       0.00000000
O        0.00000000       1.95000000       2.05000000       0.00000000       0.00000000       0.00000000
5
Lattice="3.9 0.0 0.0 0.0 3.9 0.0 0.0 0.0 4.1" Properties=species:S:1:pos:R:3:REF_forces:R:3 REF_energy=0.051416367498932136 REF_electric_field="0.0 0.0 0.12" REF_polarization="0.0 0.0 -0.004547001420047075" REF_mode_displacement=-0.04888888888888887 label_source="fixed-cell analytic Landau field-switching toy; not DFT or experiment" config_type=train_d_9_ez_14 pbc="T T T"
Ba       0.00000000       0.00000000       0.00000000       0.00000000       0.00000000       0.00000000
Ti       1.95000000       1.95000000       2.00111111       0.00000000       0.00000000       0.41284533
O        1.95000000       1.95000000       0.00000000       0.00000000       0.00000000       0.00000000
O        1.95000000       0.00000000       2.05000000       0.00000000       0.00000000       0.00000000
O        0.00000000       1.95000000       2.05000000       0.00000000       0.00000000       0.00000000
5
Lattice="3.9 0.0 0.0 0.0 3.9 0.0 0.0 0.0 4.1" Properties=species:S:1:pos:R:3:REF_forces:R:3 REF_energy=0.005954953009835534 REF_electric_field="0.0 0.0 -0.12" REF_polarization="0.0 0.0 -0.0022735007100235377" REF_mode_displacement=-0.024444444444444435 label_source="fixed-cell analytic Landau field-switching toy; not DFT or experiment" config_type=train_d_10_ez_0 pbc="T T T"
Ba       0.00000000       0.00000000       0.00000000       0.00000000       0.00000000       0.00000000
Ti       1.95000000       1.95000000       2.02555556       0.00000000       0.00000000      -0.85870915
O        1.95000000       1.95000000       0.00000000       0.00000000       0.00000000       0.00000000
O        1.95000000       0.00000000       2.05000000       0.00000000       0.00000000       0.00000000
O        0.00000000       1.95000000       2.05000000       0.00000000       0.00000000       0.00000000
5
Lattice="3.9 0.0 0.0 0.0 3.9 0.0 0.0 0.0 4.1" Properties=species:S:1:pos:R:3:REF_forces:R:3 REF_energy=0.008790508565391085 REF_electric_field="0.0 0.0 -0.1" REF_polarization="0.0 0.0 -0.0022735007100235377" REF_mode_displacement=-0.024444444444444435 label_source="fixed-cell analytic Landau field-switching toy; not DFT or experiment" config_type=train_d_10_ez_1 pbc="T T T"
Ba       0.00000000       0.00000000       0.00000000       0.00000000       0.00000000       0.00000000
Ti       1.95000000       1.95000000       2.02555556       0.00000000       0.00000000      -0.74270915
O        1.95000000       1.95000000       0.00000000       0.00000000       0.00000000       0.00000000
O        1.95000000       0.00000000       2.05000000       0.00000000       0.00000000       0.00000000
O        0.00000000       1.95000000       2.05000000       0.00000000       0.00000000       0.00000000
5
Lattice="3.9 0.0 0.0 0.0 3.9 0.0 0.0 0.0 4.1" Properties=species:S:1:pos:R:3:REF_forces:R:3 REF_energy=0.01162606412094664 REF_electric_field="0.0 0.0 -0.08" REF_polarization="0.0 0.0 -0.0022735007100235377" REF_mode_displacement=-0.024444444444444435 label_source="fixed-cell analytic Landau field-switching toy; not DFT or experiment" config_type=train_d_10_ez_2 pbc="T T T"
Ba       0.00000000       0.00000000       0.00000000       0.00000000       0.00000000       0.00000000
Ti       1.95000000       1.95000000       2.02555556       0.00000000       0.00000000      -0.62670915
O        1.95000000       1.95000000       0.00000000       0.00000000       0.00000000       0.00000000
O        1.95000000       0.00000000       2.05000000       0.00000000       0.00000000       0.00000000
O        0.00000000       1.95000000       2.05000000       0.00000000       0.00000000       0.00000000
5
Lattice="3.9 0.0 0.0 0.0 3.9 0.0 0.0 0.0 4.1" Properties=species:S:1:pos:R:3:REF_forces:R:3 REF_energy=0.014461619676502196 REF_electric_field="0.0 0.0 -0.06" REF_polarization="0.0 0.0 -0.0022735007100235377" REF_mode_displacement=-0.024444444444444435 label_source="fixed-cell analytic Landau field-switching toy; not DFT or experiment" config_type=train_d_10_ez_3 pbc="T T T"
Ba       0.00000000       0.00000000       0.00000000       0.00000000       0.00000000       0.00000000
Ti       1.95000000       1.95000000       2.02555556       0.00000000       0.00000000      -0.51070915
O        1.95000000       1.95000000       0.00000000       0.00000000       0.00000000       0.00000000
O        1.95000000       0.00000000       2.05000000       0.00000000       0.00000000       0.00000000
O        0.00000000       1.95000000       2.05000000       0.00000000       0.00000000       0.00000000
5
Lattice="3.9 0.0 0.0 0.0 3.9 0.0 0.0 0.0 4.1" Properties=species:S:1:pos:R:3:REF_forces:R:3 REF_energy=0.01587939745427997 REF_electric_field="0.0 0.0 -0.05" REF_polarization="0.0 0.0 -0.0022735007100235377" REF_mode_displacement=-0.024444444444444435 label_source="fixed-cell analytic Landau field-switching toy; not DFT or experiment" config_type=train_d_10_ez_4 pbc="T T T"
Ba       0.00000000       0.00000000       0.00000000       0.00000000       0.00000000       0.00000000
Ti       1.95000000       1.95000000       2.02555556       0.00000000       0.00000000      -0.45270915
O        1.95000000       1.95000000       0.00000000       0.00000000       0.00000000       0.00000000
O        1.95000000       0.00000000       2.05000000       0.00000000       0.00000000       0.00000000
O        0.00000000       1.95000000       2.05000000       0.00000000       0.00000000       0.00000000
5
Lattice="3.9 0.0 0.0 0.0 3.9 0.0 0.0 0.0 4.1" Properties=species:S:1:pos:R:3:REF_forces:R:3 REF_energy=0.01729717523205775 REF_electric_field="0.0 0.0 -0.04" REF_polarization="0.0 0.0 -0.0022735007100235377" REF_mode_displacement=-0.024444444444444435 label_source="fixed-cell analytic Landau field-switching toy; not DFT or experiment" config_type=train_d_10_ez_5 pbc="T T T"
Ba       0.00000000       0.00000000       0.00000000       0.00000000       0.00000000       0.00000000
Ti       1.95000000       1.95000000       2.02555556       0.00000000       0.00000000      -0.39470915
O        1.95000000       1.95000000       0.00000000       0.00000000       0.00000000       0.00000000
O        1.95000000       0.00000000       2.05000000       0.00000000       0.00000000       0.00000000
O        0.00000000       1.95000000       2.05000000       0.00000000       0.00000000       0.00000000
5
Lattice="3.9 0.0 0.0 0.0 3.9 0.0 0.0 0.0 4.1" Properties=species:S:1:pos:R:3:REF_forces:R:3 REF_energy=0.020132730787613302 REF_electric_field="0.0 0.0 -0.02" REF_polarization="0.0 0.0 -0.0022735007100235377" REF_mode_displacement=-0.024444444444444435 label_source="fixed-cell analytic Landau field-switching toy; not DFT or experiment" config_type=train_d_10_ez_6 pbc="T T T"
Ba       0.00000000       0.00000000       0.00000000       0.00000000       0.00000000       0.00000000
Ti       1.95000000       1.95000000       2.02555556       0.00000000       0.00000000      -0.27870915
O        1.95000000       1.95000000       0.00000000       0.00000000       0.00000000       0.00000000
O        1.95000000       0.00000000       2.05000000       0.00000000       0.00000000       0.00000000
O        0.00000000       1.95000000       2.05000000       0.00000000       0.00000000       0.00000000
5
Lattice="3.9 0.0 0.0 0.0 3.9 0.0 0.0 0.0 4.1" Properties=species:S:1:pos:R:3:REF_forces:R:3 REF_energy=0.02296828634316886 REF_electric_field="0.0 0.0 0.0" REF_polarization="0.0 0.0 -0.0022735007100235377" REF_mode_displacement=-0.024444444444444435 label_source="fixed-cell analytic Landau field-switching toy; not DFT or experiment" config_type=train_d_10_ez_7 pbc="T T T"
Ba       0.00000000       0.00000000       0.00000000       0.00000000       0.00000000       0.00000000
Ti       1.95000000       1.95000000       2.02555556       0.00000000       0.00000000      -0.16270915
O        1.95000000       1.95000000       0.00000000       0.00000000       0.00000000       0.00000000
O        1.95000000       0.00000000       2.05000000       0.00000000       0.00000000       0.00000000
O        0.00000000       1.95000000       2.05000000       0.00000000       0.00000000       0.00000000
5
Lattice="3.9 0.0 0.0 0.0 3.9 0.0 0.0 0.0 4.1" Properties=species:S:1:pos:R:3:REF_forces:R:3 REF_energy=0.025803841898724415 REF_electric_field="0.0 0.0 0.02" REF_polarization="0.0 0.0 -0.0022735007100235377" REF_mode_displacement=-0.024444444444444435 label_source="fixed-cell analytic Landau field-switching toy; not DFT or experiment" config_type=train_d_10_ez_8 pbc="T T T"
Ba       0.00000000       0.00000000       0.00000000       0.00000000       0.00000000       0.00000000
Ti       1.95000000       1.95000000       2.02555556       0.00000000       0.00000000      -0.04670915
O        1.95000000       1.95000000       0.00000000       0.00000000       0.00000000       0.00000000
O        1.95000000       0.00000000       2.05000000       0.00000000       0.00000000       0.00000000
O        0.00000000       1.95000000       2.05000000       0.00000000       0.00000000       0.00000000
5
Lattice="3.9 0.0 0.0 0.0 3.9 0.0 0.0 0.0 4.1" Properties=species:S:1:pos:R:3:REF_forces:R:3 REF_energy=0.02863939745427997 REF_electric_field="0.0 0.0 0.04" REF_polarization="0.0 0.0 -0.0022735007100235377" REF_mode_displacement=-0.024444444444444435 label_source="fixed-cell analytic Landau field-switching toy; not DFT or experiment" config_type=train_d_10_ez_9 pbc="T T T"
Ba       0.00000000       0.00000000       0.00000000       0.00000000       0.00000000       0.00000000
Ti       1.95000000       1.95000000       2.02555556       0.00000000       0.00000000       0.06929085
O        1.95000000       1.95000000       0.00000000       0.00000000       0.00000000       0.00000000
O        1.95000000       0.00000000       2.05000000       0.00000000       0.00000000       0.00000000
O        0.00000000       1.95000000       2.05000000       0.00000000       0.00000000       0.00000000
5
Lattice="3.9 0.0 0.0 0.0 3.9 0.0 0.0 0.0 4.1" Properties=species:S:1:pos:R:3:REF_forces:R:3 REF_energy=0.030057175232057746 REF_electric_field="0.0 0.0 0.05" REF_polarization="0.0 0.0 -0.0022735007100235377" REF_mode_displacement=-0.024444444444444435 label_source="fixed-cell analytic Landau field-switching toy; not DFT or experiment" config_type=train_d_10_ez_10 pbc="T T T"
Ba       0.00000000       0.00000000       0.00000000       0.00000000       0.00000000       0.00000000
Ti       1.95000000       1.95000000       2.02555556       0.00000000       0.00000000       0.12729085
O        1.95000000       1.95000000       0.00000000       0.00000000       0.00000000       0.00000000
O        1.95000000       0.00000000       2.05000000       0.00000000       0.00000000       0.00000000
O        0.00000000       1.95000000       2.05000000       0.00000000       0.00000000       0.00000000
5
Lattice="3.9 0.0 0.0 0.0 3.9 0.0 0.0 0.0 4.1" Properties=species:S:1:pos:R:3:REF_forces:R:3 REF_energy=0.03147495300983552 REF_electric_field="0.0 0.0 0.06" REF_polarization="0.0 0.0 -0.0022735007100235377" REF_mode_displacement=-0.024444444444444435 label_source="fixed-cell analytic Landau field-switching toy; not DFT or experiment" config_type=train_d_10_ez_11 pbc="T T T"
Ba       0.00000000       0.00000000       0.00000000       0.00000000       0.00000000       0.00000000
Ti       1.95000000       1.95000000       2.02555556       0.00000000       0.00000000       0.18529085
O        1.95000000       1.95000000       0.00000000       0.00000000       0.00000000       0.00000000
O        1.95000000       0.00000000       2.05000000       0.00000000       0.00000000       0.00000000
O        0.00000000       1.95000000       2.05000000       0.00000000       0.00000000       0.00000000
5
Lattice="3.9 0.0 0.0 0.0 3.9 0.0 0.0 0.0 4.1" Properties=species:S:1:pos:R:3:REF_forces:R:3 REF_energy=0.03431050856539108 REF_electric_field="0.0 0.0 0.08" REF_polarization="0.0 0.0 -0.0022735007100235377" REF_mode_displacement=-0.024444444444444435 label_source="fixed-cell analytic Landau field-switching toy; not DFT or experiment" config_type=train_d_10_ez_12 pbc="T T T"
Ba       0.00000000       0.00000000       0.00000000       0.00000000       0.00000000       0.00000000
Ti       1.95000000       1.95000000       2.02555556       0.00000000       0.00000000       0.30129085
O        1.95000000       1.95000000       0.00000000       0.00000000       0.00000000       0.00000000
O        1.95000000       0.00000000       2.05000000       0.00000000       0.00000000       0.00000000
O        0.00000000       1.95000000       2.05000000       0.00000000       0.00000000       0.00000000
5
Lattice="3.9 0.0 0.0 0.0 3.9 0.0 0.0 0.0 4.1" Properties=species:S:1:pos:R:3:REF_forces:R:3 REF_energy=0.037146064120946634 REF_electric_field="0.0 0.0 0.1" REF_polarization="0.0 0.0 -0.0022735007100235377" REF_mode_displacement=-0.024444444444444435 label_source="fixed-cell analytic Landau field-switching toy; not DFT or experiment" config_type=train_d_10_ez_13 pbc="T T T"
Ba       0.00000000       0.00000000       0.00000000       0.00000000       0.00000000       0.00000000
Ti       1.95000000       1.95000000       2.02555556       0.00000000       0.00000000       0.41729085
O        1.95000000       1.95000000       0.00000000       0.00000000       0.00000000       0.00000000
O        1.95000000       0.00000000       2.05000000       0.00000000       0.00000000       0.00000000
O        0.00000000       1.95000000       2.05000000       0.00000000       0.00000000       0.00000000
5
Lattice="3.9 0.0 0.0 0.0 3.9 0.0 0.0 0.0 4.1" Properties=species:S:1:pos:R:3:REF_forces:R:3 REF_energy=0.039981619676502184 REF_electric_field="0.0 0.0 0.12" REF_polarization="0.0 0.0 -0.0022735007100235377" REF_mode_displacement=-0.024444444444444435 label_source="fixed-cell analytic Landau field-switching toy; not DFT or experiment" config_type=train_d_10_ez_14 pbc="T T T"
Ba       0.00000000       0.00000000       0.00000000       0.00000000       0.00000000       0.00000000
Ti       1.95000000       1.95000000       2.02555556       0.00000000       0.00000000       0.53329085
O        1.95000000       1.95000000       0.00000000       0.00000000       0.00000000       0.00000000
O        1.95000000       0.00000000       2.05000000       0.00000000       0.00000000       0.00000000
O        0.00000000       1.95000000       2.05000000       0.00000000       0.00000000       0.00000000
5
Lattice="3.9 0.0 0.0 0.0 3.9 0.0 0.0 0.0 4.1" Properties=species:S:1:pos:R:3:REF_forces:R:3 REF_energy=0.025 REF_electric_field="0.0 0.0 -0.12" REF_polarization="0.0 0.0 0.0" REF_mode_displacement=0.0 label_source="fixed-cell analytic Landau field-switching toy; not DFT or experiment" config_type=train_d_11_ez_0 pbc="T T T"
Ba       0.00000000       0.00000000       0.00000000       0.00000000       0.00000000       0.00000000
Ti       1.95000000       1.95000000       2.05000000       0.00000000       0.00000000      -0.69600000
O        1.95000000       1.95000000       0.00000000       0.00000000       0.00000000       0.00000000
O        1.95000000       0.00000000       2.05000000       0.00000000       0.00000000       0.00000000
O        0.00000000       1.95000000       2.05000000       0.00000000       0.00000000       0.00000000
5
Lattice="3.9 0.0 0.0 0.0 3.9 0.0 0.0 0.0 4.1" Properties=species:S:1:pos:R:3:REF_forces:R:3 REF_energy=0.025 REF_electric_field="0.0 0.0 -0.1" REF_polarization="0.0 0.0 0.0" REF_mode_displacement=0.0 label_source="fixed-cell analytic Landau field-switching toy; not DFT or experiment" config_type=train_d_11_ez_1 pbc="T T T"
Ba       0.00000000       0.00000000       0.00000000       0.00000000       0.00000000       0.00000000
Ti       1.95000000       1.95000000       2.05000000       0.00000000       0.00000000      -0.58000000
O        1.95000000       1.95000000       0.00000000       0.00000000       0.00000000       0.00000000
O        1.95000000       0.00000000       2.05000000       0.00000000       0.00000000       0.00000000
O        0.00000000       1.95000000       2.05000000       0.00000000       0.00000000       0.00000000
5
Lattice="3.9 0.0 0.0 0.0 3.9 0.0 0.0 0.0 4.1" Properties=species:S:1:pos:R:3:REF_forces:R:3 REF_energy=0.025 REF_electric_field="0.0 0.0 -0.08" REF_polarization="0.0 0.0 0.0" REF_mode_displacement=0.0 label_source="fixed-cell analytic Landau field-switching toy; not DFT or experiment" config_type=train_d_11_ez_2 pbc="T T T"
Ba       0.00000000       0.00000000       0.00000000       0.00000000       0.00000000       0.00000000
Ti       1.95000000       1.95000000       2.05000000       0.00000000       0.00000000      -0.46400000
O        1.95000000       1.95000000       0.00000000       0.00000000       0.00000000       0.00000000
O        1.95000000       0.00000000       2.05000000       0.00000000       0.00000000       0.00000000
O        0.00000000       1.95000000       2.05000000       0.00000000       0.00000000       0.00000000
5
Lattice="3.9 0.0 0.0 0.0 3.9 0.0 0.0 0.0 4.1" Properties=species:S:1:pos:R:3:REF_forces:R:3 REF_energy=0.025 REF_electric_field="0.0 0.0 -0.06" REF_polarization="0.0 0.0 0.0" REF_mode_displacement=0.0 label_source="fixed-cell analytic Landau field-switching toy; not DFT or experiment" config_type=train_d_11_ez_3 pbc="T T T"
Ba       0.00000000       0.00000000       0.00000000       0.00000000       0.00000000       0.00000000
Ti       1.95000000       1.95000000       2.05000000       0.00000000       0.00000000      -0.34800000
O        1.95000000       1.95000000       0.00000000       0.00000000       0.00000000       0.00000000
O        1.95000000       0.00000000       2.05000000       0.00000000       0.00000000       0.00000000
O        0.00000000       1.95000000       2.05000000       0.00000000       0.00000000       0.00000000
5
Lattice="3.9 0.0 0.0 0.0 3.9 0.0 0.0 0.0 4.1" Properties=species:S:1:pos:R:3:REF_forces:R:3 REF_energy=0.025 REF_electric_field="0.0 0.0 -0.05" REF_polarization="0.0 0.0 0.0" REF_mode_displacement=0.0 label_source="fixed-cell analytic Landau field-switching toy; not DFT or experiment" config_type=train_d_11_ez_4 pbc="T T T"
Ba       0.00000000       0.00000000       0.00000000       0.00000000       0.00000000       0.00000000
Ti       1.95000000       1.95000000       2.05000000       0.00000000       0.00000000      -0.29000000
O        1.95000000       1.95000000       0.00000000       0.00000000       0.00000000       0.00000000
O        1.95000000       0.00000000       2.05000000       0.00000000       0.00000000       0.00000000
O        0.00000000       1.95000000       2.05000000       0.00000000       0.00000000       0.00000000
5
Lattice="3.9 0.0 0.0 0.0 3.9 0.0 0.0 0.0 4.1" Properties=species:S:1:pos:R:3:REF_forces:R:3 REF_energy=0.025 REF_electric_field="0.0 0.0 -0.04" REF_polarization="0.0 0.0 0.0" REF_mode_displacement=0.0 label_source="fixed-cell analytic Landau field-switching toy; not DFT or experiment" config_type=train_d_11_ez_5 pbc="T T T"
Ba       0.00000000       0.00000000       0.00000000       0.00000000       0.00000000       0.00000000
Ti       1.95000000       1.95000000       2.05000000       0.00000000       0.00000000      -0.23200000
O        1.95000000       1.95000000       0.00000000       0.00000000       0.00000000       0.00000000
O        1.95000000       0.00000000       2.05000000       0.00000000       0.00000000       0.00000000
O        0.00000000       1.95000000       2.05000000       0.00000000       0.00000000       0.00000000
5
Lattice="3.9 0.0 0.0 0.0 3.9 0.0 0.0 0.0 4.1" Properties=species:S:1:pos:R:3:REF_forces:R:3 REF_energy=0.025 REF_electric_field="0.0 0.0 -0.02" REF_polarization="0.0 0.0 0.0" REF_mode_displacement=0.0 label_source="fixed-cell analytic Landau field-switching toy; not DFT or experiment" config_type=train_d_11_ez_6 pbc="T T T"
Ba       0.00000000       0.00000000       0.00000000       0.00000000       0.00000000       0.00000000
Ti       1.95000000       1.95000000       2.05000000       0.00000000       0.00000000      -0.11600000
O        1.95000000       1.95000000       0.00000000       0.00000000       0.00000000       0.00000000
O        1.95000000       0.00000000       2.05000000       0.00000000       0.00000000       0.00000000
O        0.00000000       1.95000000       2.05000000       0.00000000       0.00000000       0.00000000
5
Lattice="3.9 0.0 0.0 0.0 3.9 0.0 0.0 0.0 4.1" Properties=species:S:1:pos:R:3:REF_forces:R:3 REF_energy=0.025 REF_electric_field="0.0 0.0 0.0" REF_polarization="0.0 0.0 0.0" REF_mode_displacement=0.0 label_source="fixed-cell analytic Landau field-switching toy; not DFT or experiment" config_type=train_d_11_ez_7 pbc="T T T"
Ba       0.00000000       0.00000000       0.00000000       0.00000000       0.00000000       0.00000000
Ti       1.95000000       1.95000000       2.05000000       0.00000000       0.00000000       0.00000000
O        1.95000000       1.95000000       0.00000000       0.00000000       0.00000000       0.00000000
O        1.95000000       0.00000000       2.05000000       0.00000000       0.00000000       0.00000000
O        0.00000000       1.95000000       2.05000000       0.00000000       0.00000000       0.00000000
5
Lattice="3.9 0.0 0.0 0.0 3.9 0.0 0.0 0.0 4.1" Properties=species:S:1:pos:R:3:REF_forces:R:3 REF_energy=0.025 REF_electric_field="0.0 0.0 0.02" REF_polarization="0.0 0.0 0.0" REF_mode_displacement=0.0 label_source="fixed-cell analytic Landau field-switching toy; not DFT or experiment" config_type=train_d_11_ez_8 pbc="T T T"
Ba       0.00000000       0.00000000       0.00000000       0.00000000       0.00000000       0.00000000
Ti       1.95000000       1.95000000       2.05000000       0.00000000       0.00000000       0.11600000
O        1.95000000       1.95000000       0.00000000       0.00000000       0.00000000       0.00000000
O        1.95000000       0.00000000       2.05000000       0.00000000       0.00000000       0.00000000
O        0.00000000       1.95000000       2.05000000       0.00000000       0.00000000       0.00000000
5
Lattice="3.9 0.0 0.0 0.0 3.9 0.0 0.0 0.0 4.1" Properties=species:S:1:pos:R:3:REF_forces:R:3 REF_energy=0.025 REF_electric_field="0.0 0.0 0.04" REF_polarization="0.0 0.0 0.0" REF_mode_displacement=0.0 label_source="fixed-cell analytic Landau field-switching toy; not DFT or experiment" config_type=train_d_11_ez_9 pbc="T T T"
Ba       0.00000000       0.00000000       0.00000000       0.00000000       0.00000000       0.00000000
Ti       1.95000000       1.95000000       2.05000000       0.00000000       0.00000000       0.23200000
O        1.95000000       1.95000000       0.00000000       0.00000000       0.00000000       0.00000000
O        1.95000000       0.00000000       2.05000000       0.00000000       0.00000000       0.00000000
O        0.00000000       1.95000000       2.05000000       0.00000000       0.00000000       0.00000000
5
Lattice="3.9 0.0 0.0 0.0 3.9 0.0 0.0 0.0 4.1" Properties=species:S:1:pos:R:3:REF_forces:R:3 REF_energy=0.025 REF_electric_field="0.0 0.0 0.05" REF_polarization="0.0 0.0 0.0" REF_mode_displacement=0.0 label_source="fixed-cell analytic Landau field-switching toy; not DFT or experiment" config_type=train_d_11_ez_10 pbc="T T T"
Ba       0.00000000       0.00000000       0.00000000       0.00000000       0.00000000       0.00000000
Ti       1.95000000       1.95000000       2.05000000       0.00000000       0.00000000       0.29000000
O        1.95000000       1.95000000       0.00000000       0.00000000       0.00000000       0.00000000
O        1.95000000       0.00000000       2.05000000       0.00000000       0.00000000       0.00000000
O        0.00000000       1.95000000       2.05000000       0.00000000       0.00000000       0.00000000
5
Lattice="3.9 0.0 0.0 0.0 3.9 0.0 0.0 0.0 4.1" Properties=species:S:1:pos:R:3:REF_forces:R:3 REF_energy=0.025 REF_electric_field="0.0 0.0 0.06" REF_polarization="0.0 0.0 0.0" REF_mode_displacement=0.0 label_source="fixed-cell analytic Landau field-switching toy; not DFT or experiment" config_type=train_d_11_ez_11 pbc="T T T"
Ba       0.00000000       0.00000000       0.00000000       0.00000000       0.00000000       0.00000000
Ti       1.95000000       1.95000000       2.05000000       0.00000000       0.00000000       0.34800000
O        1.95000000       1.95000000       0.00000000       0.00000000       0.00000000       0.00000000
O        1.95000000       0.00000000       2.05000000       0.00000000       0.00000000       0.00000000
O        0.00000000       1.95000000       2.05000000       0.00000000       0.00000000       0.00000000
5
Lattice="3.9 0.0 0.0 0.0 3.9 0.0 0.0 0.0 4.1" Properties=species:S:1:pos:R:3:REF_forces:R:3 REF_energy=0.025 REF_electric_field="0.0 0.0 0.08" REF_polarization="0.0 0.0 0.0" REF_mode_displacement=0.0 label_source="fixed-cell analytic Landau field-switching toy; not DFT or experiment" config_type=train_d_11_ez_12 pbc="T T T"
Ba       0.00000000       0.00000000       0.00000000       0.00000000       0.00000000       0.00000000
Ti       1.95000000       1.95000000       2.05000000       0.00000000       0.00000000       0.46400000
O        1.95000000       1.95000000       0.00000000       0.00000000       0.00000000       0.00000000
O        1.95000000       0.00000000       2.05000000       0.00000000       0.00000000       0.00000000
O        0.00000000       1.95000000       2.05000000       0.00000000       0.00000000       0.00000000
5
Lattice="3.9 0.0 0.0 0.0 3.9 0.0 0.0 0.0 4.1" Properties=species:S:1:pos:R:3:REF_forces:R:3 REF_energy=0.025 REF_electric_field="0.0 0.0 0.1" REF_polarization="0.0 0.0 0.0" REF_mode_displacement=0.0 label_source="fixed-cell analytic Landau field-switching toy; not DFT or experiment" config_type=train_d_11_ez_13 pbc="T T T"
Ba       0.00000000       0.00000000       0.00000000       0.00000000       0.00000000       0.00000000
Ti       1.95000000       1.95000000       2.05000000       0.00000000       0.00000000       0.58000000
O        1.95000000       1.95000000       0.00000000       0.00000000       0.00000000       0.00000000
O        1.95000000       0.00000000       2.05000000       0.00000000       0.00000000       0.00000000
O        0.00000000       1.95000000       2.05000000       0.00000000       0.00000000       0.00000000
5
Lattice="3.9 0.0 0.0 0.0 3.9 0.0 0.0 0.0 4.1" Properties=species:S:1:pos:R:3:REF_forces:R:3 REF_energy=0.025 REF_electric_field="0.0 0.0 0.12" REF_polarization="0.0 0.0 0.0" REF_mode_displacement=0.0 label_source="fixed-cell analytic Landau field-switching toy; not DFT or experiment" config_type=train_d_11_ez_14 pbc="T T T"
Ba       0.00000000       0.00000000       0.00000000       0.00000000       0.00000000       0.00000000
Ti       1.95000000       1.95000000       2.05000000       0.00000000       0.00000000       0.69600000
O        1.95000000       1.95000000       0.00000000       0.00000000       0.00000000       0.00000000
O        1.95000000       0.00000000       2.05000000       0.00000000       0.00000000       0.00000000
O        0.00000000       1.95000000       2.05000000       0.00000000       0.00000000       0.00000000
5
Lattice="3.9 0.0 0.0 0.0 3.9 0.0 0.0 0.0 4.1" Properties=species:S:1:pos:R:3:REF_forces:R:3 REF_energy=0.039981619676502204 REF_electric_field="0.0 0.0 -0.12" REF_polarization="0.0 0.0 0.0022735007100235403" REF_mode_displacement=0.024444444444444463 label_source="fixed-cell analytic Landau field-switching toy; not DFT or experiment" config_type=train_d_12_ez_0 pbc="T T T"
Ba       0.00000000       0.00000000       0.00000000       0.00000000       0.00000000       0.00000000
Ti       1.95000000       1.95000000       2.07444444       0.00000000       0.00000000      -0.53329085
O        1.95000000       1.95000000       0.00000000       0.00000000       0.00000000       0.00000000
O        1.95000000       0.00000000       2.05000000       0.00000000       0.00000000       0.00000000
O        0.00000000       1.95000000       2.05000000       0.00000000       0.00000000       0.00000000
5
Lattice="3.9 0.0 0.0 0.0 3.9 0.0 0.0 0.0 4.1" Properties=species:S:1:pos:R:3:REF_forces:R:3 REF_energy=0.03714606412094665 REF_electric_field="0.0 0.0 -0.1" REF_polarization="0.0 0.0 0.0022735007100235403" REF_mode_displacement=0.024444444444444463 label_source="fixed-cell analytic Landau field-switching toy; not DFT or experiment" config_type=train_d_12_ez_1 pbc="T T T"
Ba       0.00000000       0.00000000       0.00000000       0.00000000       0.00000000       0.00000000
Ti       1.95000000       1.95000000       2.07444444       0.00000000       0.00000000      -0.41729085
O        1.95000000       1.95000000       0.00000000       0.00000000       0.00000000       0.00000000
O        1.95000000       0.00000000       2.05000000       0.00000000       0.00000000       0.00000000
O        0.00000000       1.95000000       2.05000000       0.00000000       0.00000000       0.00000000
5
Lattice="3.9 0.0 0.0 0.0 3.9 0.0 0.0 0.0 4.1" Properties=species:S:1:pos:R:3:REF_forces:R:3 REF_energy=0.03431050856539109 REF_electric_field="0.0 0.0 -0.08" REF_polarization="0.0 0.0 0.0022735007100235403" REF_mode_displacement=0.024444444444444463 label_source="fixed-cell analytic Landau field-switching toy; not DFT or experiment" config_type=train_d_12_ez_2 pbc="T T T"
Ba       0.00000000       0.00000000       0.00000000       0.00000000       0.00000000       0.00000000
Ti       1.95000000       1.95000000       2.07444444       0.00000000       0.00000000      -0.30129085
O        1.95000000       1.95000000       0.00000000       0.00000000       0.00000000       0.00000000
O        1.95000000       0.00000000       2.05000000       0.00000000       0.00000000       0.00000000
O        0.00000000       1.95000000       2.05000000       0.00000000       0.00000000       0.00000000
5
Lattice="3.9 0.0 0.0 0.0 3.9 0.0 0.0 0.0 4.1" Properties=species:S:1:pos:R:3:REF_forces:R:3 REF_energy=0.031474953009835535 REF_electric_field="0.0 0.0 -0.06" REF_polarization="0.0 0.0 0.0022735007100235403" REF_mode_displacement=0.024444444444444463 label_source="fixed-cell analytic Landau field-switching toy; not DFT or experiment" config_type=train_d_12_ez_3 pbc="T T T"
Ba       0.00000000       0.00000000       0.00000000       0.00000000       0.00000000       0.00000000
Ti       1.95000000       1.95000000       2.07444444       0.00000000       0.00000000      -0.18529085
O        1.95000000       1.95000000       0.00000000       0.00000000       0.00000000       0.00000000
O        1.95000000       0.00000000       2.05000000       0.00000000       0.00000000       0.00000000
O        0.00000000       1.95000000       2.05000000       0.00000000       0.00000000       0.00000000
5
Lattice="3.9 0.0 0.0 0.0 3.9 0.0 0.0 0.0 4.1" Properties=species:S:1:pos:R:3:REF_forces:R:3 REF_energy=0.030057175232057753 REF_electric_field="0.0 0.0 -0.05" REF_polarization="0.0 0.0 0.0022735007100235403" REF_mode_displacement=0.024444444444444463 label_source="fixed-cell analytic Landau field-switching toy; not DFT or experiment" config_type=train_d_12_ez_4 pbc="T T T"
Ba       0.00000000       0.00000000       0.00000000       0.00000000       0.00000000       0.00000000
Ti       1.95000000       1.95000000       2.07444444       0.00000000       0.00000000      -0.12729085
O        1.95000000       1.95000000       0.00000000       0.00000000       0.00000000       0.00000000
O        1.95000000       0.00000000       2.05000000       0.00000000       0.00000000       0.00000000
O        0.00000000       1.95000000       2.05000000       0.00000000       0.00000000       0.00000000
5
Lattice="3.9 0.0 0.0 0.0 3.9 0.0 0.0 0.0 4.1" Properties=species:S:1:pos:R:3:REF_forces:R:3 REF_energy=0.028639397454279975 REF_electric_field="0.0 0.0 -0.04" REF_polarization="0.0 0.0 0.0022735007100235403" REF_mode_displacement=0.024444444444444463 label_source="fixed-cell analytic Landau field-switching toy; not DFT or experiment" config_type=train_d_12_ez_5 pbc="T T T"
Ba       0.00000000       0.00000000       0.00000000       0.00000000       0.00000000       0.00000000
Ti       1.95000000       1.95000000       2.07444444       0.00000000       0.00000000      -0.06929085
O        1.95000000       1.95000000       0.00000000       0.00000000       0.00000000       0.00000000
O        1.95000000       0.00000000       2.05000000       0.00000000       0.00000000       0.00000000
O        0.00000000       1.95000000       2.05000000       0.00000000       0.00000000       0.00000000
5
Lattice="3.9 0.0 0.0 0.0 3.9 0.0 0.0 0.0 4.1" Properties=species:S:1:pos:R:3:REF_forces:R:3 REF_energy=0.025803841898724415 REF_electric_field="0.0 0.0 -0.02" REF_polarization="0.0 0.0 0.0022735007100235403" REF_mode_displacement=0.024444444444444463 label_source="fixed-cell analytic Landau field-switching toy; not DFT or experiment" config_type=train_d_12_ez_6 pbc="T T T"
Ba       0.00000000       0.00000000       0.00000000       0.00000000       0.00000000       0.00000000
Ti       1.95000000       1.95000000       2.07444444       0.00000000       0.00000000       0.04670915
O        1.95000000       1.95000000       0.00000000       0.00000000       0.00000000       0.00000000
O        1.95000000       0.00000000       2.05000000       0.00000000       0.00000000       0.00000000
O        0.00000000       1.95000000       2.05000000       0.00000000       0.00000000       0.00000000
5
Lattice="3.9 0.0 0.0 0.0 3.9 0.0 0.0 0.0 4.1" Properties=species:S:1:pos:R:3:REF_forces:R:3 REF_energy=0.02296828634316886 REF_electric_field="0.0 0.0 0.0" REF_polarization="0.0 0.0 0.0022735007100235403" REF_mode_displacement=0.024444444444444463 label_source="fixed-cell analytic Landau field-switching toy; not DFT or experiment" config_type=train_d_12_ez_7 pbc="T T T"
Ba       0.00000000       0.00000000       0.00000000       0.00000000       0.00000000       0.00000000
Ti       1.95000000       1.95000000       2.07444444       0.00000000       0.00000000       0.16270915
O        1.95000000       1.95000000       0.00000000       0.00000000       0.00000000       0.00000000
O        1.95000000       0.00000000       2.05000000       0.00000000       0.00000000       0.00000000
O        0.00000000       1.95000000       2.05000000       0.00000000       0.00000000       0.00000000
5
Lattice="3.9 0.0 0.0 0.0 3.9 0.0 0.0 0.0 4.1" Properties=species:S:1:pos:R:3:REF_forces:R:3 REF_energy=0.020132730787613302 REF_electric_field="0.0 0.0 0.02" REF_polarization="0.0 0.0 0.0022735007100235403" REF_mode_displacement=0.024444444444444463 label_source="fixed-cell analytic Landau field-switching toy; not DFT or experiment" config_type=train_d_12_ez_8 pbc="T T T"
Ba       0.00000000       0.00000000       0.00000000       0.00000000       0.00000000       0.00000000
Ti       1.95000000       1.95000000       2.07444444       0.00000000       0.00000000       0.27870915
O        1.95000000       1.95000000       0.00000000       0.00000000       0.00000000       0.00000000
O        1.95000000       0.00000000       2.05000000       0.00000000       0.00000000       0.00000000
O        0.00000000       1.95000000       2.05000000       0.00000000       0.00000000       0.00000000
5
Lattice="3.9 0.0 0.0 0.0 3.9 0.0 0.0 0.0 4.1" Properties=species:S:1:pos:R:3:REF_forces:R:3 REF_energy=0.017297175232057743 REF_electric_field="0.0 0.0 0.04" REF_polarization="0.0 0.0 0.0022735007100235403" REF_mode_displacement=0.024444444444444463 label_source="fixed-cell analytic Landau field-switching toy; not DFT or experiment" config_type=train_d_12_ez_9 pbc="T T T"
Ba       0.00000000       0.00000000       0.00000000       0.00000000       0.00000000       0.00000000
Ti       1.95000000       1.95000000       2.07444444       0.00000000       0.00000000       0.39470915
O        1.95000000       1.95000000       0.00000000       0.00000000       0.00000000       0.00000000
O        1.95000000       0.00000000       2.05000000       0.00000000       0.00000000       0.00000000
O        0.00000000       1.95000000       2.05000000       0.00000000       0.00000000       0.00000000
5
Lattice="3.9 0.0 0.0 0.0 3.9 0.0 0.0 0.0 4.1" Properties=species:S:1:pos:R:3:REF_forces:R:3 REF_energy=0.015879397454279964 REF_electric_field="0.0 0.0 0.05" REF_polarization="0.0 0.0 0.0022735007100235403" REF_mode_displacement=0.024444444444444463 label_source="fixed-cell analytic Landau field-switching toy; not DFT or experiment" config_type=train_d_12_ez_10 pbc="T T T"
Ba       0.00000000       0.00000000       0.00000000       0.00000000       0.00000000       0.00000000
Ti       1.95000000       1.95000000       2.07444444       0.00000000       0.00000000       0.45270915
O        1.95000000       1.95000000       0.00000000       0.00000000       0.00000000       0.00000000
O        1.95000000       0.00000000       2.05000000       0.00000000       0.00000000       0.00000000
O        0.00000000       1.95000000       2.05000000       0.00000000       0.00000000       0.00000000
5
Lattice="3.9 0.0 0.0 0.0 3.9 0.0 0.0 0.0 4.1" Properties=species:S:1:pos:R:3:REF_forces:R:3 REF_energy=0.014461619676502186 REF_electric_field="0.0 0.0 0.06" REF_polarization="0.0 0.0 0.0022735007100235403" REF_mode_displacement=0.024444444444444463 label_source="fixed-cell analytic Landau field-switching toy; not DFT or experiment" config_type=train_d_12_ez_11 pbc="T T T"
Ba       0.00000000       0.00000000       0.00000000       0.00000000       0.00000000       0.00000000
Ti       1.95000000       1.95000000       2.07444444       0.00000000       0.00000000       0.51070915
O        1.95000000       1.95000000       0.00000000       0.00000000       0.00000000       0.00000000
O        1.95000000       0.00000000       2.05000000       0.00000000       0.00000000       0.00000000
O        0.00000000       1.95000000       2.05000000       0.00000000       0.00000000       0.00000000
5
Lattice="3.9 0.0 0.0 0.0 3.9 0.0 0.0 0.0 4.1" Properties=species:S:1:pos:R:3:REF_forces:R:3 REF_energy=0.011626064120946628 REF_electric_field="0.0 0.0 0.08" REF_polarization="0.0 0.0 0.0022735007100235403" REF_mode_displacement=0.024444444444444463 label_source="fixed-cell analytic Landau field-switching toy; not DFT or experiment" config_type=train_d_12_ez_12 pbc="T T T"
Ba       0.00000000       0.00000000       0.00000000       0.00000000       0.00000000       0.00000000
Ti       1.95000000       1.95000000       2.07444444       0.00000000       0.00000000       0.62670915
O        1.95000000       1.95000000       0.00000000       0.00000000       0.00000000       0.00000000
O        1.95000000       0.00000000       2.05000000       0.00000000       0.00000000       0.00000000
O        0.00000000       1.95000000       2.05000000       0.00000000       0.00000000       0.00000000
5
Lattice="3.9 0.0 0.0 0.0 3.9 0.0 0.0 0.0 4.1" Properties=species:S:1:pos:R:3:REF_forces:R:3 REF_energy=0.00879050856539107 REF_electric_field="0.0 0.0 0.1" REF_polarization="0.0 0.0 0.0022735007100235403" REF_mode_displacement=0.024444444444444463 label_source="fixed-cell analytic Landau field-switching toy; not DFT or experiment" config_type=train_d_12_ez_13 pbc="T T T"
Ba       0.00000000       0.00000000       0.00000000       0.00000000       0.00000000       0.00000000
Ti       1.95000000       1.95000000       2.07444444       0.00000000       0.00000000       0.74270915
O        1.95000000       1.95000000       0.00000000       0.00000000       0.00000000       0.00000000
O        1.95000000       0.00000000       2.05000000       0.00000000       0.00000000       0.00000000
O        0.00000000       1.95000000       2.05000000       0.00000000       0.00000000       0.00000000
5
Lattice="3.9 0.0 0.0 0.0 3.9 0.0 0.0 0.0 4.1" Properties=species:S:1:pos:R:3:REF_forces:R:3 REF_energy=0.005954953009835513 REF_electric_field="0.0 0.0 0.12" REF_polarization="0.0 0.0 0.0022735007100235403" REF_mode_displacement=0.024444444444444463 label_source="fixed-cell analytic Landau field-switching toy; not DFT or experiment" config_type=train_d_12_ez_14 pbc="T T T"
Ba       0.00000000       0.00000000       0.00000000       0.00000000       0.00000000       0.00000000
Ti       1.95000000       1.95000000       2.07444444       0.00000000       0.00000000       0.85870915
O        1.95000000       1.95000000       0.00000000       0.00000000       0.00000000       0.00000000
O        1.95000000       0.00000000       2.05000000       0.00000000       0.00000000       0.00000000
O        0.00000000       1.95000000       2.05000000       0.00000000       0.00000000       0.00000000
5
Lattice="3.9 0.0 0.0 0.0 3.9 0.0 0.0 0.0 4.1" Properties=species:S:1:pos:R:3:REF_forces:R:3 REF_energy=0.05141636749893215 REF_electric_field="0.0 0.0 -0.12" REF_polarization="0.0 0.0 0.004547001420047078" REF_mode_displacement=0.0488888888888889 label_source="fixed-cell analytic Landau field-switching toy; not DFT or experiment" config_type=train_d_13_ez_0 pbc="T T T"
Ba       0.00000000       0.00000000       0.00000000       0.00000000       0.00000000       0.00000000
Ti       1.95000000       1.95000000       2.09888889       0.00000000       0.00000000      -0.41284533
O        1.95000000       1.95000000       0.00000000       0.00000000       0.00000000       0.00000000
O        1.95000000       0.00000000       2.05000000       0.00000000       0.00000000       0.00000000
O        0.00000000       1.95000000       2.05000000       0.00000000       0.00000000       0.00000000
5
Lattice="3.9 0.0 0.0 0.0 3.9 0.0 0.0 0.0 4.1" Properties=species:S:1:pos:R:3:REF_forces:R:3 REF_energy=0.045745256387821044 REF_electric_field="0.0 0.0 -0.1" REF_polarization="0.0 0.0 0.004547001420047078" REF_mode_displacement=0.0488888888888889 label_source="fixed-cell analytic Landau field-switching toy; not DFT or experiment" config_type=train_d_13_ez_1 pbc="T T T"
Ba       0.00000000       0.00000000       0.00000000       0.00000000       0.00000000       0.00000000
Ti       1.95000000       1.95000000       2.09888889       0.00000000       0.00000000      -0.29684533
O        1.95000000       1.95000000       0.00000000       0.00000000       0.00000000       0.00000000
O        1.95000000       0.00000000       2.05000000       0.00000000       0.00000000       0.00000000
O        0.00000000       1.95000000       2.05000000       0.00000000       0.00000000       0.00000000
5
Lattice="3.9 0.0 0.0 0.0 3.9 0.0 0.0 0.0 4.1" Properties=species:S:1:pos:R:3:REF_forces:R:3 REF_energy=0.040074145276709924 REF_electric_field="0.0 0.0 -0.08" REF_polarization="0.0 0.0 0.004547001420047078" REF_mode_displacement=0.0488888888888889 label_source="fixed-cell analytic Landau field-switching toy; not DFT or experiment" config_type=train_d_13_ez_2 pbc="T T T"
Ba       0.00000000       0.00000000       0.00000000       0.00000000       0.00000000       0.00000000
Ti       1.95000000       1.95000000       2.09888889       0.00000000       0.00000000      -0.18084533
O        1.95000000       1.95000000       0.00000000       0.00000000       0.00000000       0.00000000
O        1.95000000       0.00000000       2.05000000       0.00000000       0.00000000       0.00000000
O        0.00000000       1.95000000       2.05000000       0.00000000       0.00000000       0.00000000
5
Lattice="3.9 0.0 0.0 0.0 3.9 0.0 0.0 0.0 4.1" Properties=species:S:1:pos:R:3:REF_forces:R:3 REF_energy=0.03440303416559881 REF_electric_field="0.0 0.0 -0.06" REF_polarization="0.0 0.0 0.004547001420047078" REF_mode_displacement=0.0488888888888889 label_source="fixed-cell analytic Landau field-switching toy; not DFT or experiment" config_type=train_d_13_ez_3 pbc="T T T"
Ba       0.00000000       0.00000000       0.00000000       0.00000000       0.00000000       0.00000000
Ti       1.95000000       1.95000000       2.09888889       0.00000000       0.00000000      -0.06484533
O        1.95000000       1.95000000       0.00000000       0.00000000       0.00000000       0.00000000
O        1.95000000       0.00000000       2.05000000       0.00000000       0.00000000       0.00000000
O        0.00000000       1.95000000       2.05000000       0.00000000       0.00000000       0.00000000
5
Lattice="3.9 0.0 0.0 0.0 3.9 0.0 0.0 0.0 4.1" Properties=species:S:1:pos:R:3:REF_forces:R:3 REF_energy=0.03156747861004326 REF_electric_field="0.0 0.0 -0.05" REF_polarization="0.0 0.0 0.004547001420047078" REF_mode_displacement=0.0488888888888889 label_source="fixed-cell analytic Landau field-switching toy; not DFT or experiment" config_type=train_d_13_ez_4 pbc="T T T"
Ba       0.00000000       0.00000000       0.00000000       0.00000000       0.00000000       0.00000000
Ti       1.95000000       1.95000000       2.09888889       0.00000000       0.00000000      -0.00684533
O        1.95000000       1.95000000       0.00000000       0.00000000       0.00000000       0.00000000
O        1.95000000       0.00000000       2.05000000       0.00000000       0.00000000       0.00000000
O        0.00000000       1.95000000       2.05000000       0.00000000       0.00000000       0.00000000
5
Lattice="3.9 0.0 0.0 0.0 3.9 0.0 0.0 0.0 4.1" Properties=species:S:1:pos:R:3:REF_forces:R:3 REF_energy=0.028731923054487706 REF_electric_field="0.0 0.0 -0.04" REF_polarization="0.0 0.0 0.004547001420047078" REF_mode_displacement=0.0488888888888889 label_source="fixed-cell analytic Landau field-switching toy; not DFT or experiment" config_type=train_d_13_ez_5 pbc="T T T"
Ba       0.00000000       0.00000000       0.00000000       0.00000000       0.00000000       0.00000000
Ti       1.95000000       1.95000000       2.09888889       0.00000000       0.00000000       0.05115467
O        1.95000000       1.95000000       0.00000000       0.00000000       0.00000000       0.00000000
O        1.95000000       0.00000000       2.05000000       0.00000000       0.00000000       0.00000000
O        0.00000000       1.95000000       2.05000000       0.00000000       0.00000000       0.00000000
5
Lattice="3.9 0.0 0.0 0.0 3.9 0.0 0.0 0.0 4.1" Properties=species:S:1:pos:R:3:REF_forces:R:3 REF_energy=0.023060811943376593 REF_electric_field="0.0 0.0 -0.02" REF_polarization="0.0 0.0 0.004547001420047078" REF_mode_displacement=0.0488888888888889 label_source="fixed-cell analytic Landau field-switching toy; not DFT or experiment" config_type=train_d_13_ez_6 pbc="T T T"
Ba       0.00000000       0.00000000       0.00000000       0.00000000       0.00000000       0.00000000
Ti       1.95000000       1.95000000       2.09888889       0.00000000       0.00000000       0.16715467
O        1.95000000       1.95000000       0.00000000       0.00000000       0.00000000       0.00000000
O        1.95000000       0.00000000       2.05000000       0.00000000       0.00000000       0.00000000
O        0.00000000       1.95000000       2.05000000       0.00000000       0.00000000       0.00000000
5
Lattice="3.9 0.0 0.0 0.0 3.9 0.0 0.0 0.0 4.1" Properties=species:S:1:pos:R:3:REF_forces:R:3 REF_energy=0.01738970083226548 REF_electric_field="0.0 0.0 0.0" REF_polarization="0.0 0.0 0.004547001420047078" REF_mode_displacement=0.0488888888888889 label_source="fixed-cell analytic Landau field-switching toy; not DFT or experiment" config_type=train_d_13_ez_7 pbc="T T T"
Ba       0.00000000       0.00000000       0.00000000       0.00000000       0.00000000       0.00000000
Ti       1.95000000       1.95000000       2.09888889       0.00000000       0.00000000       0.28315467
O        1.95000000       1.95000000       0.00000000       0.00000000       0.00000000       0.00000000
O        1.95000000       0.00000000       2.05000000       0.00000000       0.00000000       0.00000000
O        0.00000000       1.95000000       2.05000000       0.00000000       0.00000000       0.00000000
5
Lattice="3.9 0.0 0.0 0.0 3.9 0.0 0.0 0.0 4.1" Properties=species:S:1:pos:R:3:REF_forces:R:3 REF_energy=0.011718589721154367 REF_electric_field="0.0 0.0 0.02" REF_polarization="0.0 0.0 0.004547001420047078" REF_mode_displacement=0.0488888888888889 label_source="fixed-cell analytic Landau field-switching toy; not DFT or experiment" config_type=train_d_13_ez_8 pbc="T T T"
Ba       0.00000000       0.00000000       0.00000000       0.00000000       0.00000000       0.00000000
Ti       1.95000000       1.95000000       2.09888889       0.00000000       0.00000000       0.39915467
O        1.95000000       1.95000000       0.00000000       0.00000000       0.00000000       0.00000000
O        1.95000000       0.00000000       2.05000000       0.00000000       0.00000000       0.00000000
O        0.00000000       1.95000000       2.05000000       0.00000000       0.00000000       0.00000000
5
Lattice="3.9 0.0 0.0 0.0 3.9 0.0 0.0 0.0 4.1" Properties=species:S:1:pos:R:3:REF_forces:R:3 REF_energy=0.006047478610043256 REF_electric_field="0.0 0.0 0.04" REF_polarization="0.0 0.0 0.004547001420047078" REF_mode_displacement=0.0488888888888889 label_source="fixed-cell analytic Landau field-switching toy; not DFT or experiment" config_type=train_d_13_ez_9 pbc="T T T"
Ba       0.00000000       0.00000000       0.00000000       0.00000000       0.00000000       0.00000000
Ti       1.95000000       1.95000000       2.09888889       0.00000000       0.00000000       0.51515467
O        1.95000000       1.95000000       0.00000000       0.00000000       0.00000000       0.00000000
O        1.95000000       0.00000000       2.05000000       0.00000000       0.00000000       0.00000000
O        0.00000000       1.95000000       2.05000000       0.00000000       0.00000000       0.00000000
5
Lattice="3.9 0.0 0.0 0.0 3.9 0.0 0.0 0.0 4.1" Properties=species:S:1:pos:R:3:REF_forces:R:3 REF_energy=0.0032119230544876975 REF_electric_field="0.0 0.0 0.05" REF_polarization="0.0 0.0 0.004547001420047078" REF_mode_displacement=0.0488888888888889 label_source="fixed-cell analytic Landau field-switching toy; not DFT or experiment" config_type=train_d_13_ez_10 pbc="T T T"
Ba       0.00000000       0.00000000       0.00000000       0.00000000       0.00000000       0.00000000
Ti       1.95000000       1.95000000       2.09888889       0.00000000       0.00000000       0.57315467
O        1.95000000       1.95000000       0.00000000       0.00000000       0.00000000       0.00000000
O        1.95000000       0.00000000       2.05000000       0.00000000       0.00000000       0.00000000
O        0.00000000       1.95000000       2.05000000       0.00000000       0.00000000       0.00000000
5
Lattice="3.9 0.0 0.0 0.0 3.9 0.0 0.0 0.0 4.1" Properties=species:S:1:pos:R:3:REF_forces:R:3 REF_energy=0.0003763674989321446 REF_electric_field="0.0 0.0 0.06" REF_polarization="0.0 0.0 0.004547001420047078" REF_mode_displacement=0.0488888888888889 label_source="fixed-cell analytic Landau field-switching toy; not DFT or experiment" config_type=train_d_13_ez_11 pbc="T T T"
Ba       0.00000000       0.00000000       0.00000000       0.00000000       0.00000000       0.00000000
Ti       1.95000000       1.95000000       2.09888889       0.00000000       0.00000000       0.63115467
O        1.95000000       1.95000000       0.00000000       0.00000000       0.00000000       0.00000000
O        1.95000000       0.00000000       2.05000000       0.00000000       0.00000000       0.00000000
O        0.00000000       1.95000000       2.05000000       0.00000000       0.00000000       0.00000000
5
Lattice="3.9 0.0 0.0 0.0 3.9 0.0 0.0 0.0 4.1" Properties=species:S:1:pos:R:3:REF_forces:R:3 REF_energy=-0.005294743612178968 REF_electric_field="0.0 0.0 0.08" REF_polarization="0.0 0.0 0.004547001420047078" REF_mode_displacement=0.0488888888888889 label_source="fixed-cell analytic Landau field-switching toy; not DFT or experiment" config_type=train_d_13_ez_12 pbc="T T T"
Ba       0.00000000       0.00000000       0.00000000       0.00000000       0.00000000       0.00000000
Ti       1.95000000       1.95000000       2.09888889       0.00000000       0.00000000       0.74715467
O        1.95000000       1.95000000       0.00000000       0.00000000       0.00000000       0.00000000
O        1.95000000       0.00000000       2.05000000       0.00000000       0.00000000       0.00000000
O        0.00000000       1.95000000       2.05000000       0.00000000       0.00000000       0.00000000
5
Lattice="3.9 0.0 0.0 0.0 3.9 0.0 0.0 0.0 4.1" Properties=species:S:1:pos:R:3:REF_forces:R:3 REF_energy=-0.010965854723290085 REF_electric_field="0.0 0.0 0.1" REF_polarization="0.0 0.0 0.004547001420047078" REF_mode_displacement=0.0488888888888889 label_source="fixed-cell analytic Landau field-switching toy; not DFT or experiment" config_type=train_d_13_ez_13 pbc="T T T"
Ba       0.00000000       0.00000000       0.00000000       0.00000000       0.00000000       0.00000000
Ti       1.95000000       1.95000000       2.09888889       0.00000000       0.00000000       0.86315467
O        1.95000000       1.95000000       0.00000000       0.00000000       0.00000000       0.00000000
O        1.95000000       0.00000000       2.05000000       0.00000000       0.00000000       0.00000000
O        0.00000000       1.95000000       2.05000000       0.00000000       0.00000000       0.00000000
5
Lattice="3.9 0.0 0.0 0.0 3.9 0.0 0.0 0.0 4.1" Properties=species:S:1:pos:R:3:REF_forces:R:3 REF_energy=-0.01663696583440119 REF_electric_field="0.0 0.0 0.12" REF_polarization="0.0 0.0 0.004547001420047078" REF_mode_displacement=0.0488888888888889 label_source="fixed-cell analytic Landau field-switching toy; not DFT or experiment" config_type=train_d_13_ez_14 pbc="T T T"
Ba       0.00000000       0.00000000       0.00000000       0.00000000       0.00000000       0.00000000
Ti       1.95000000       1.95000000       2.09888889       0.00000000       0.00000000       0.97915467
O        1.95000000       1.95000000       0.00000000       0.00000000       0.00000000       0.00000000
O        1.95000000       0.00000000       2.05000000       0.00000000       0.00000000       0.00000000
O        0.00000000       1.95000000       2.05000000       0.00000000       0.00000000       0.00000000
5
Lattice="3.9 0.0 0.0 0.0 3.9 0.0 0.0 0.0 4.1" Properties=species:S:1:pos:R:3:REF_forces:R:3 REF_energy=0.05933140559382865 REF_electric_field="0.0 0.0 -0.12" REF_polarization="0.0 0.0 0.006443703394044031" REF_mode_displacement=0.06928203230275509 label_source="fixed-cell analytic Landau field-switching toy; not DFT or experiment" config_type=train_d_14_ez_0 pbc="T T T"
Ba       0.00000000       0.00000000       0.00000000       0.00000000       0.00000000       0.00000000
Ti       1.95000000       1.95000000       2.11928203       0.00000000       0.00000000      -0.37524985
O        1.95000000       1.95000000       0.00000000       0.00000000       0.00000000       0.00000000
O        1.95000000       0.00000000       2.05000000       0.00000000       0.00000000       0.00000000
O        0.00000000       1.95000000       2.05000000       0.00000000       0.00000000       0.00000000
5
Lattice="3.9 0.0 0.0 0.0 3.9 0.0 0.0 0.0 4.1" Properties=species:S:1:pos:R:3:REF_forces:R:3 REF_energy=0.05129468984670906 REF_electric_field="0.0 0.0 -0.1" REF_polarization="0.0 0.0 0.006443703394044031" REF_mode_displacement=0.06928203230275509 label_source="fixed-cell analytic Landau field-switching toy; not DFT or experiment" config_type=train_d_14_ez_1 pbc="T T T"
Ba       0.00000000       0.00000000       0.00000000       0.00000000       0.00000000       0.00000000
Ti       1.95000000       1.95000000       2.11928203       0.00000000       0.00000000      -0.25924985
O        1.95000000       1.95000000       0.00000000       0.00000000       0.00000000       0.00000000
O        1.95000000       0.00000000       2.05000000       0.00000000       0.00000000       0.00000000
O        0.00000000       1.95000000       2.05000000       0.00000000       0.00000000       0.00000000
5
Lattice="3.9 0.0 0.0 0.0 3.9 0.0 0.0 0.0 4.1" Properties=species:S:1:pos:R:3:REF_forces:R:3 REF_energy=0.043257974099589466 REF_electric_field="0.0 0.0 -0.08" REF_polarization="0.0 0.0 0.006443703394044031" REF_mode_displacement=0.06928203230275509 label_source="fixed-cell analytic Landau field-switching toy; not DFT or experiment" config_type=train_d_14_ez_2 pbc="T T T"
Ba       0.00000000       0.00000000       0.00000000       0.00000000       0.00000000       0.00000000
Ti       1.95000000       1.95000000       2.11928203       0.00000000       0.00000000      -0.14324985
O        1.95000000       1.95000000       0.00000000       0.00000000       0.00000000       0.00000000
O        1.95000000       0.00000000       2.05000000       0.00000000       0.00000000       0.00000000
O        0.00000000       1.95000000       2.05000000       0.00000000       0.00000000       0.00000000
5
Lattice="3.9 0.0 0.0 0.0 3.9 0.0 0.0 0.0 4.1" Properties=species:S:1:pos:R:3:REF_forces:R:3 REF_energy=0.03522125835246988 REF_electric_field="0.0 0.0 -0.06" REF_polarization="0.0 0.0 0.006443703394044031" REF_mode_displacement=0.06928203230275509 label_source="fixed-cell analytic Landau field-switching toy; not DFT or experiment" config_type=train_d_14_ez_3 pbc="T T T"
Ba       0.00000000       0.00000000       0.00000000       0.00000000       0.00000000       0.00000000
Ti       1.95000000       1.95000000       2.11928203       0.00000000       0.00000000      -0.02724985
O        1.95000000       1.95000000       0.00000000       0.00000000       0.00000000       0.00000000
O        1.95000000       0.00000000       2.05000000       0.00000000       0.00000000       0.00000000
O        0.00000000       1.95000000       2.05000000       0.00000000       0.00000000       0.00000000
5
Lattice="3.9 0.0 0.0 0.0 3.9 0.0 0.0 0.0 4.1" Properties=species:S:1:pos:R:3:REF_forces:R:3 REF_energy=0.031202900478910084 REF_electric_field="0.0 0.0 -0.05" REF_polarization="0.0 0.0 0.006443703394044031" REF_mode_displacement=0.06928203230275509 label_source="fixed-cell analytic Landau field-switching toy; not DFT or experiment" config_type=train_d_14_ez_4 pbc="T T T"
Ba       0.00000000       0.00000000       0.00000000       0.00000000       0.00000000       0.00000000
Ti       1.95000000       1.95000000       2.11928203       0.00000000       0.00000000       0.03075015
O        1.95000000       1.95000000       0.00000000       0.00000000       0.00000000       0.00000000
O        1.95000000       0.00000000       2.05000000       0.00000000       0.00000000       0.00000000
O        0.00000000       1.95000000       2.05000000       0.00000000       0.00000000       0.00000000
5
Lattice="3.9 0.0 0.0 0.0 3.9 0.0 0.0 0.0 4.1" Properties=species:S:1:pos:R:3:REF_forces:R:3 REF_energy=0.027184542605350286 REF_electric_field="0.0 0.0 -0.04" REF_polarization="0.0 0.0 0.006443703394044031" REF_mode_displacement=0.06928203230275509 label_source="fixed-cell analytic Landau field-switching toy; not DFT or experiment" config_type=train_d_14_ez_5 pbc="T T T"
Ba       0.00000000       0.00000000       0.00000000       0.00000000       0.00000000       0.00000000
Ti       1.95000000       1.95000000       2.11928203       0.00000000       0.00000000       0.08875015
O        1.95000000       1.95000000       0.00000000       0.00000000       0.00000000       0.00000000
O        1.95000000       0.00000000       2.05000000       0.00000000       0.00000000       0.00000000
O        0.00000000       1.95000000       2.05000000       0.00000000       0.00000000       0.00000000
5
Lattice="3.9 0.0 0.0 0.0 3.9 0.0 0.0 0.0 4.1" Properties=species:S:1:pos:R:3:REF_forces:R:3 REF_energy=0.019147826858230695 REF_electric_field="0.0 0.0 -0.02" REF_polarization="0.0 0.0 0.006443703394044031" REF_mode_displacement=0.06928203230275509 label_source="fixed-cell analytic Landau field-switching toy; not DFT or experiment" config_type=train_d_14_ez_6 pbc="T T T"
Ba       0.00000000       0.00000000       0.00000000       0.00000000       0.00000000       0.00000000
Ti       1.95000000       1.95000000       2.11928203       0.00000000       0.00000000       0.20475015
O        1.95000000       1.95000000       0.00000000       0.00000000       0.00000000       0.00000000
O        1.95000000       0.00000000       2.05000000       0.00000000       0.00000000       0.00000000
O        0.00000000       1.95000000       2.05000000       0.00000000       0.00000000       0.00000000
5
Lattice="3.9 0.0 0.0 0.0 3.9 0.0 0.0 0.0 4.1" Properties=species:S:1:pos:R:3:REF_forces:R:3 REF_energy=0.011111111111111106 REF_electric_field="0.0 0.0 0.0" REF_polarization="0.0 0.0 0.006443703394044031" REF_mode_displacement=0.06928203230275509 label_source="fixed-cell analytic Landau field-switching toy; not DFT or experiment" config_type=train_d_14_ez_7 pbc="T T T"
Ba       0.00000000       0.00000000       0.00000000       0.00000000       0.00000000       0.00000000
Ti       1.95000000       1.95000000       2.11928203       0.00000000       0.00000000       0.32075015
O        1.95000000       1.95000000       0.00000000       0.00000000       0.00000000       0.00000000
O        1.95000000       0.00000000       2.05000000       0.00000000       0.00000000       0.00000000
O        0.00000000       1.95000000       2.05000000       0.00000000       0.00000000       0.00000000
5
Lattice="3.9 0.0 0.0 0.0 3.9 0.0 0.0 0.0 4.1" Properties=species:S:1:pos:R:3:REF_forces:R:3 REF_energy=0.0030743953639915163 REF_electric_field="0.0 0.0 0.02" REF_polarization="0.0 0.0 0.006443703394044031" REF_mode_displacement=0.06928203230275509 label_source="fixed-cell analytic Landau field-switching toy; not DFT or experiment" config_type=train_d_14_ez_8 pbc="T T T"
Ba       0.00000000       0.00000000       0.00000000       0.00000000       0.00000000       0.00000000
Ti       1.95000000       1.95000000       2.11928203       0.00000000       0.00000000       0.43675015
O        1.95000000       1.95000000       0.00000000       0.00000000       0.00000000       0.00000000
O        1.95000000       0.00000000       2.05000000       0.00000000       0.00000000       0.00000000
O        0.00000000       1.95000000       2.05000000       0.00000000       0.00000000       0.00000000
5
Lattice="3.9 0.0 0.0 0.0 3.9 0.0 0.0 0.0 4.1" Properties=species:S:1:pos:R:3:REF_forces:R:3 REF_energy=-0.004962320383128074 REF_electric_field="0.0 0.0 0.04" REF_polarization="0.0 0.0 0.006443703394044031" REF_mode_displacement=0.06928203230275509 label_source="fixed-cell analytic Landau field-switching toy; not DFT or experiment" config_type=train_d_14_ez_9 pbc="T T T"
Ba       0.00000000       0.00000000       0.00000000       0.00000000       0.00000000       0.00000000
Ti       1.95000000       1.95000000       2.11928203       0.00000000       0.00000000       0.55275015
O        1.95000000       1.95000000       0.00000000       0.00000000       0.00000000       0.00000000
O        1.95000000       0.00000000       2.05000000       0.00000000       0.00000000       0.00000000
O        0.00000000       1.95000000       2.05000000       0.00000000       0.00000000       0.00000000
5
Lattice="3.9 0.0 0.0 0.0 3.9 0.0 0.0 0.0 4.1" Properties=species:S:1:pos:R:3:REF_forces:R:3 REF_energy=-0.008980678256687871 REF_electric_field="0.0 0.0 0.05" REF_polarization="0.0 0.0 0.006443703394044031" REF_mode_displacement=0.06928203230275509 label_source="fixed-cell analytic Landau field-switching toy; not DFT or experiment" config_type=train_d_14_ez_10 pbc="T T T"
Ba       0.00000000       0.00000000       0.00000000       0.00000000       0.00000000       0.00000000
Ti       1.95000000       1.95000000       2.11928203       0.00000000       0.00000000       0.61075015
O        1.95000000       1.95000000       0.00000000       0.00000000       0.00000000       0.00000000
O        1.95000000       0.00000000       2.05000000       0.00000000       0.00000000       0.00000000
O        0.00000000       1.95000000       2.05000000       0.00000000       0.00000000       0.00000000
5
Lattice="3.9 0.0 0.0 0.0 3.9 0.0 0.0 0.0 4.1" Properties=species:S:1:pos:R:3:REF_forces:R:3 REF_energy=-0.012999036130247665 REF_electric_field="0.0 0.0 0.06" REF_polarization="0.0 0.0 0.006443703394044031" REF_mode_displacement=0.06928203230275509 label_source="fixed-cell analytic Landau field-switching toy; not DFT or experiment" config_type=train_d_14_ez_11 pbc="T T T"
Ba       0.00000000       0.00000000       0.00000000       0.00000000       0.00000000       0.00000000
Ti       1.95000000       1.95000000       2.11928203       0.00000000       0.00000000       0.66875015
O        1.95000000       1.95000000       0.00000000       0.00000000       0.00000000       0.00000000
O        1.95000000       0.00000000       2.05000000       0.00000000       0.00000000       0.00000000
O        0.00000000       1.95000000       2.05000000       0.00000000       0.00000000       0.00000000
5
Lattice="3.9 0.0 0.0 0.0 3.9 0.0 0.0 0.0 4.1" Properties=species:S:1:pos:R:3:REF_forces:R:3 REF_energy=-0.021035751877367254 REF_electric_field="0.0 0.0 0.08" REF_polarization="0.0 0.0 0.006443703394044031" REF_mode_displacement=0.06928203230275509 label_source="fixed-cell analytic Landau field-switching toy; not DFT or experiment" config_type=train_d_14_ez_12 pbc="T T T"
Ba       0.00000000       0.00000000       0.00000000       0.00000000       0.00000000       0.00000000
Ti       1.95000000       1.95000000       2.11928203       0.00000000       0.00000000       0.78475015
O        1.95000000       1.95000000       0.00000000       0.00000000       0.00000000       0.00000000
O        1.95000000       0.00000000       2.05000000       0.00000000       0.00000000       0.00000000
O        0.00000000       1.95000000       2.05000000       0.00000000       0.00000000       0.00000000
5
Lattice="3.9 0.0 0.0 0.0 3.9 0.0 0.0 0.0 4.1" Properties=species:S:1:pos:R:3:REF_forces:R:3 REF_energy=-0.02907246762448685 REF_electric_field="0.0 0.0 0.1" REF_polarization="0.0 0.0 0.006443703394044031" REF_mode_displacement=0.06928203230275509 label_source="fixed-cell analytic Landau field-switching toy; not DFT or experiment" config_type=train_d_14_ez_13 pbc="T T T"
Ba       0.00000000       0.00000000       0.00000000       0.00000000       0.00000000       0.00000000
Ti       1.95000000       1.95000000       2.11928203       0.00000000       0.00000000       0.90075015
O        1.95000000       1.95000000       0.00000000       0.00000000       0.00000000       0.00000000
O        1.95000000       0.00000000       2.05000000       0.00000000       0.00000000       0.00000000
O        0.00000000       1.95000000       2.05000000       0.00000000       0.00000000       0.00000000
5
Lattice="3.9 0.0 0.0 0.0 3.9 0.0 0.0 0.0 4.1" Properties=species:S:1:pos:R:3:REF_forces:R:3 REF_energy=-0.03710918337160644 REF_electric_field="0.0 0.0 0.12" REF_polarization="0.0 0.0 0.006443703394044031" REF_mode_displacement=0.06928203230275509 label_source="fixed-cell analytic Landau field-switching toy; not DFT or experiment" config_type=train_d_14_ez_14 pbc="T T T"
Ba       0.00000000       0.00000000       0.00000000       0.00000000       0.00000000       0.00000000
Ti       1.95000000       1.95000000       2.11928203       0.00000000       0.00000000       1.01675015
O        1.95000000       1.95000000       0.00000000       0.00000000       0.00000000       0.00000000
O        1.95000000       0.00000000       2.05000000       0.00000000       0.00000000       0.00000000
O        0.00000000       1.95000000       2.05000000       0.00000000       0.00000000       0.00000000
5
Lattice="3.9 0.0 0.0 0.0 3.9 0.0 0.0 0.0 4.1" Properties=species:S:1:pos:R:3:REF_forces:R:3 REF_energy=0.06085390984606005 REF_electric_field="0.0 0.0 -0.12" REF_polarization="0.0 0.0 0.006820502130070616" REF_mode_displacement=0.07333333333333333 label_source="fixed-cell analytic Landau field-switching toy; not DFT or experiment" config_type=train_d_15_ez_0 pbc="T T T"
Ba       0.00000000       0.00000000       0.00000000       0.00000000       0.00000000       0.00000000
Ti       1.95000000       1.95000000       2.12333333       0.00000000       0.00000000      -0.37692707
O        1.95000000       1.95000000       0.00000000       0.00000000       0.00000000       0.00000000
O        1.95000000       0.00000000       2.05000000       0.00000000       0.00000000       0.00000000
O        0.00000000       1.95000000       2.05000000       0.00000000       0.00000000       0.00000000
5
Lattice="3.9 0.0 0.0 0.0 3.9 0.0 0.0 0.0 4.1" Properties=species:S:1:pos:R:3:REF_forces:R:3 REF_energy=0.05234724317939339 REF_electric_field="0.0 0.0 -0.1" REF_polarization="0.0 0.0 0.006820502130070616" REF_mode_displacement=0.07333333333333333 label_source="fixed-cell analytic Landau field-switching toy; not DFT or experiment" config_type=train_d_15_ez_1 pbc="T T T"
Ba       0.00000000       0.00000000       0.00000000       0.00000000       0.00000000       0.00000000
Ti       1.95000000       1.95000000       2.12333333       0.00000000       0.00000000      -0.26092707
O        1.95000000       1.95000000       0.00000000       0.00000000       0.00000000       0.00000000
O        1.95000000       0.00000000       2.05000000       0.00000000       0.00000000       0.00000000
O        0.00000000       1.95000000       2.05000000       0.00000000       0.00000000       0.00000000
5
Lattice="3.9 0.0 0.0 0.0 3.9 0.0 0.0 0.0 4.1" Properties=species:S:1:pos:R:3:REF_forces:R:3 REF_energy=0.04384057651272672 REF_electric_field="0.0 0.0 -0.08" REF_polarization="0.0 0.0 0.006820502130070616" REF_mode_displacement=0.07333333333333333 label_source="fixed-cell analytic Landau field-switching toy; not DFT or experiment" config_type=train_d_15_ez_2 pbc="T T T"
Ba       0.00000000       0.00000000       0.00000000       0.00000000       0.00000000       0.00000000
Ti       1.95000000       1.95000000       2.12333333       0.00000000       0.00000000      -0.14492707
O        1.95000000       1.95000000       0.00000000       0.00000000       0.00000000       0.00000000
O        1.95000000       0.00000000       2.05000000       0.00000000       0.00000000       0.00000000
O        0.00000000       1.95000000       2.05000000       0.00000000       0.00000000       0.00000000
5
Lattice="3.9 0.0 0.0 0.0 3.9 0.0 0.0 0.0 4.1" Properties=species:S:1:pos:R:3:REF_forces:R:3 REF_energy=0.03533390984606005 REF_electric_field="0.0 0.0 -0.06" REF_polarization="0.0 0.0 0.006820502130070616" REF_mode_displacement=0.07333333333333333 label_source="fixed-cell analytic Landau field-switching toy; not DFT or experiment" config_type=train_d_15_ez_3 pbc="T T T"
Ba       0.00000000       0.00000000       0.00000000       0.00000000       0.00000000       0.00000000
Ti       1.95000000       1.95000000       2.12333333       0.00000000       0.00000000      -0.02892707
O        1.95000000       1.95000000       0.00000000       0.00000000       0.00000000       0.00000000
O        1.95000000       0.00000000       2.05000000       0.00000000       0.00000000       0.00000000
O        0.00000000       1.95000000       2.05000000       0.00000000       0.00000000       0.00000000
5
Lattice="3.9 0.0 0.0 0.0 3.9 0.0 0.0 0.0 4.1" Properties=species:S:1:pos:R:3:REF_forces:R:3 REF_energy=0.03108057651272672 REF_electric_field="0.0 0.0 -0.05" REF_polarization="0.0 0.0 0.006820502130070616" REF_mode_displacement=0.07333333333333333 label_source="fixed-cell analytic Landau field-switching toy; not DFT or experiment" config_type=train_d_15_ez_4 pbc="T T T"
Ba       0.00000000       0.00000000       0.00000000       0.00000000       0.00000000       0.00000000
Ti       1.95000000       1.95000000       2.12333333       0.00000000       0.00000000       0.02907293
O        1.95000000       1.95000000       0.00000000       0.00000000       0.00000000       0.00000000
O        1.95000000       0.00000000       2.05000000       0.00000000       0.00000000       0.00000000
O        0.00000000       1.95000000       2.05000000       0.00000000       0.00000000       0.00000000
5
Lattice="3.9 0.0 0.0 0.0 3.9 0.0 0.0 0.0 4.1" Properties=species:S:1:pos:R:3:REF_forces:R:3 REF_energy=0.026827243179393383 REF_electric_field="0.0 0.0 -0.04" REF_polarization="0.0 0.0 0.006820502130070616" REF_mode_displacement=0.07333333333333333 label_source="fixed-cell analytic Landau field-switching toy; not DFT or experiment" config_type=train_d_15_ez_5 pbc="T T T"
Ba       0.00000000       0.00000000       0.00000000       0.00000000       0.00000000       0.00000000
Ti       1.95000000       1.95000000       2.12333333       0.00000000       0.00000000       0.08707293
O        1.95000000       1.95000000       0.00000000       0.00000000       0.00000000       0.00000000
O        1.95000000       0.00000000       2.05000000       0.00000000       0.00000000       0.00000000
O        0.00000000       1.95000000       2.05000000       0.00000000       0.00000000       0.00000000
5
Lattice="3.9 0.0 0.0 0.0 3.9 0.0 0.0 0.0 4.1" Properties=species:S:1:pos:R:3:REF_forces:R:3 REF_energy=0.018320576512726717 REF_electric_field="0.0 0.0 -0.02" REF_polarization="0.0 0.0 0.006820502130070616" REF_mode_displacement=0.07333333333333333 label_source="fixed-cell analytic Landau field-switching toy; not DFT or experiment" config_type=train_d_15_ez_6 pbc="T T T"
Ba       0.00000000       0.00000000       0.00000000       0.00000000       0.00000000       0.00000000
Ti       1.95000000       1.95000000       2.12333333       0.00000000       0.00000000       0.20307293
O        1.95000000       1.95000000       0.00000000       0.00000000       0.00000000       0.00000000
O        1.95000000       0.00000000       2.05000000       0.00000000       0.00000000       0.00000000
O        0.00000000       1.95000000       2.05000000       0.00000000       0.00000000       0.00000000
5
Lattice="3.9 0.0 0.0 0.0 3.9 0.0 0.0 0.0 4.1" Properties=species:S:1:pos:R:3:REF_forces:R:3 REF_energy=0.00981390984606005 REF_electric_field="0.0 0.0 0.0" REF_polarization="0.0 0.0 0.006820502130070616" REF_mode_displacement=0.07333333333333333 label_source="fixed-cell analytic Landau field-switching toy; not DFT or experiment" config_type=train_d_15_ez_7 pbc="T T T"
Ba       0.00000000       0.00000000       0.00000000       0.00000000       0.00000000       0.00000000
Ti       1.95000000       1.95000000       2.12333333       0.00000000       0.00000000       0.31907293
O        1.95000000       1.95000000       0.00000000       0.00000000       0.00000000       0.00000000
O        1.95000000       0.00000000       2.05000000       0.00000000       0.00000000       0.00000000
O        0.00000000       1.95000000       2.05000000       0.00000000       0.00000000       0.00000000
5
Lattice="3.9 0.0 0.0 0.0 3.9 0.0 0.0 0.0 4.1" Properties=species:S:1:pos:R:3:REF_forces:R:3 REF_energy=0.0013072431793933817 REF_electric_field="0.0 0.0 0.02" REF_polarization="0.0 0.0 0.006820502130070616" REF_mode_displacement=0.07333333333333333 label_source="fixed-cell analytic Landau field-switching toy; not DFT or experiment" config_type=train_d_15_ez_8 pbc="T T T"
Ba       0.00000000       0.00000000       0.00000000       0.00000000       0.00000000       0.00000000
Ti       1.95000000       1.95000000       2.12333333       0.00000000       0.00000000       0.43507293
O        1.95000000       1.95000000       0.00000000       0.00000000       0.00000000       0.00000000
O        1.95000000       0.00000000       2.05000000       0.00000000       0.00000000       0.00000000
O        0.00000000       1.95000000       2.05000000       0.00000000       0.00000000       0.00000000
5
Lattice="3.9 0.0 0.0 0.0 3.9 0.0 0.0 0.0 4.1" Properties=species:S:1:pos:R:3:REF_forces:R:3 REF_energy=-0.007199423487273286 REF_electric_field="0.0 0.0 0.04" REF_polarization="0.0 0.0 0.006820502130070616" REF_mode_displacement=0.07333333333333333 label_source="fixed-cell analytic Landau field-switching toy; not DFT or experiment" config_type=train_d_15_ez_9 pbc="T T T"
Ba       0.00000000       0.00000000       0.00000000       0.00000000       0.00000000       0.00000000
Ti       1.95000000       1.95000000       2.12333333       0.00000000       0.00000000       0.55107293
O        1.95000000       1.95000000       0.00000000       0.00000000       0.00000000       0.00000000
O        1.95000000       0.00000000       2.05000000       0.00000000       0.00000000       0.00000000
O        0.00000000       1.95000000       2.05000000       0.00000000       0.00000000       0.00000000
5
Lattice="3.9 0.0 0.0 0.0 3.9 0.0 0.0 0.0 4.1" Properties=species:S:1:pos:R:3:REF_forces:R:3 REF_energy=-0.01145275682060662 REF_electric_field="0.0 0.0 0.05" REF_polarization="0.0 0.0 0.006820502130070616" REF_mode_displacement=0.07333333333333333 label_source="fixed-cell analytic Landau field-switching toy; not DFT or experiment" config_type=train_d_15_ez_10 pbc="T T T"
Ba       0.00000000       0.00000000       0.00000000       0.00000000       0.00000000       0.00000000
Ti       1.95000000       1.95000000       2.12333333       0.00000000       0.00000000       0.60907293
O        1.95000000       1.95000000       0.00000000       0.00000000       0.00000000       0.00000000
O        1.95000000       0.00000000       2.05000000       0.00000000       0.00000000       0.00000000
O        0.00000000       1.95000000       2.05000000       0.00000000       0.00000000       0.00000000
5
Lattice="3.9 0.0 0.0 0.0 3.9 0.0 0.0 0.0 4.1" Properties=species:S:1:pos:R:3:REF_forces:R:3 REF_energy=-0.01570609015393995 REF_electric_field="0.0 0.0 0.06" REF_polarization="0.0 0.0 0.006820502130070616" REF_mode_displacement=0.07333333333333333 label_source="fixed-cell analytic Landau field-switching toy; not DFT or experiment" config_type=train_d_15_ez_11 pbc="T T T"
Ba       0.00000000       0.00000000       0.00000000       0.00000000       0.00000000       0.00000000
Ti       1.95000000       1.95000000       2.12333333       0.00000000       0.00000000       0.66707293
O        1.95000000       1.95000000       0.00000000       0.00000000       0.00000000       0.00000000
O        1.95000000       0.00000000       2.05000000       0.00000000       0.00000000       0.00000000
O        0.00000000       1.95000000       2.05000000       0.00000000       0.00000000       0.00000000
5
Lattice="3.9 0.0 0.0 0.0 3.9 0.0 0.0 0.0 4.1" Properties=species:S:1:pos:R:3:REF_forces:R:3 REF_energy=-0.02421275682060662 REF_electric_field="0.0 0.0 0.08" REF_polarization="0.0 0.0 0.006820502130070616" REF_mode_displacement=0.07333333333333333 label_source="fixed-cell analytic Landau field-switching toy; not DFT or experiment" config_type=train_d_15_ez_12 pbc="T T T"
Ba       0.00000000       0.00000000       0.00000000       0.00000000       0.00000000       0.00000000
Ti       1.95000000       1.95000000       2.12333333       0.00000000       0.00000000       0.78307293
O        1.95000000       1.95000000       0.00000000       0.00000000       0.00000000       0.00000000
O        1.95000000       0.00000000       2.05000000       0.00000000       0.00000000       0.00000000
O        0.00000000       1.95000000       2.05000000       0.00000000       0.00000000       0.00000000
5
Lattice="3.9 0.0 0.0 0.0 3.9 0.0 0.0 0.0 4.1" Properties=species:S:1:pos:R:3:REF_forces:R:3 REF_energy=-0.03271942348727329 REF_electric_field="0.0 0.0 0.1" REF_polarization="0.0 0.0 0.006820502130070616" REF_mode_displacement=0.07333333333333333 label_source="fixed-cell analytic Landau field-switching toy; not DFT or experiment" config_type=train_d_15_ez_13 pbc="T T T"
Ba       0.00000000       0.00000000       0.00000000       0.00000000       0.00000000       0.00000000
Ti       1.95000000       1.95000000       2.12333333       0.00000000       0.00000000       0.89907293
O        1.95000000       1.95000000       0.00000000       0.00000000       0.00000000       0.00000000
O        1.95000000       0.00000000       2.05000000       0.00000000       0.00000000       0.00000000
O        0.00000000       1.95000000       2.05000000       0.00000000       0.00000000       0.00000000
5
Lattice="3.9 0.0 0.0 0.0 3.9 0.0 0.0 0.0 4.1" Properties=species:S:1:pos:R:3:REF_forces:R:3 REF_energy=-0.04122609015393995 REF_electric_field="0.0 0.0 0.12" REF_polarization="0.0 0.0 0.006820502130070616" REF_mode_displacement=0.07333333333333333 label_source="fixed-cell analytic Landau field-switching toy; not DFT or experiment" config_type=train_d_15_ez_14 pbc="T T T"
Ba       0.00000000       0.00000000       0.00000000       0.00000000       0.00000000       0.00000000
Ti       1.95000000       1.95000000       2.12333333       0.00000000       0.00000000       1.01507293
O        1.95000000       1.95000000       0.00000000       0.00000000       0.00000000       0.00000000
O        1.95000000       0.00000000       2.05000000       0.00000000       0.00000000       0.00000000
O        0.00000000       1.95000000       2.05000000       0.00000000       0.00000000       0.00000000
5
Lattice="3.9 0.0 0.0 0.0 3.9 0.0 0.0 0.0 4.1" Properties=species:S:1:pos:R:3:REF_forces:R:3 REF_energy=0.07087702401583618 REF_electric_field="0.0 0.0 -0.12" REF_polarization="0.0 0.0 0.009094002840094153" REF_mode_displacement=0.09777777777777777 label_source="fixed-cell analytic Landau field-switching toy; not DFT or experiment" config_type=train_d_16_ez_0 pbc="T T T"
Ba       0.00000000       0.00000000       0.00000000       0.00000000       0.00000000       0.00000000
Ti       1.95000000       1.95000000       2.14777778       0.00000000       0.00000000      -0.46779969
O        1.95000000       1.95000000       0.00000000       0.00000000       0.00000000       0.00000000
O        1.95000000       0.00000000       2.05000000       0.00000000       0.00000000       0.00000000
O        0.00000000       1.95000000       2.05000000       0.00000000       0.00000000       0.00000000
5
Lattice="3.9 0.0 0.0 0.0 3.9 0.0 0.0 0.0 4.1" Properties=species:S:1:pos:R:3:REF_forces:R:3 REF_energy=0.05953480179361396 REF_electric_field="0.0 0.0 -0.1" REF_polarization="0.0 0.0 0.009094002840094153" REF_mode_displacement=0.09777777777777777 label_source="fixed-cell analytic Landau field-switching toy; not DFT or experiment" config_type=train_d_16_ez_1 pbc="T T T"
Ba       0.00000000       0.00000000       0.00000000       0.00000000       0.00000000       0.00000000
Ti       1.95000000       1.95000000       2.14777778       0.00000000       0.00000000      -0.35179969
O        1.95000000       1.95000000       0.00000000       0.00000000       0.00000000       0.00000000
O        1.95000000       0.00000000       2.05000000       0.00000000       0.00000000       0.00000000
O        0.00000000       1.95000000       2.05000000       0.00000000       0.00000000       0.00000000
5
Lattice="3.9 0.0 0.0 0.0 3.9 0.0 0.0 0.0 4.1" Properties=species:S:1:pos:R:3:REF_forces:R:3 REF_energy=0.04819257957139174 REF_electric_field="0.0 0.0 -0.08" REF_polarization="0.0 0.0 0.009094002840094153" REF_mode_displacement=0.09777777777777777 label_source="fixed-cell analytic Landau field-switching toy; not DFT or experiment" config_type=train_d_16_ez_2 pbc="T T T"
Ba       0.00000000       0.00000000       0.00000000       0.00000000       0.00000000       0.00000000
Ti       1.95000000       1.95000000       2.14777778       0.00000000       0.00000000      -0.23579969
O        1.95000000       1.95000000       0.00000000       0.00000000       0.00000000       0.00000000
O        1.95000000       0.00000000       2.05000000       0.00000000       0.00000000       0.00000000
O        0.00000000       1.95000000       2.05000000       0.00000000       0.00000000       0.00000000
5
Lattice="3.9 0.0 0.0 0.0 3.9 0.0 0.0 0.0 4.1" Properties=species:S:1:pos:R:3:REF_forces:R:3 REF_energy=0.03685035734916951 REF_electric_field="0.0 0.0 -0.06" REF_polarization="0.0 0.0 0.009094002840094153" REF_mode_displacement=0.09777777777777777 label_source="fixed-cell analytic Landau field-switching toy; not DFT or experiment" config_type=train_d_16_ez_3 pbc="T T T"
Ba       0.00000000       0.00000000       0.00000000       0.00000000       0.00000000       0.00000000
Ti       1.95000000       1.95000000       2.14777778       0.00000000       0.00000000      -0.11979969
O        1.95000000       1.95000000       0.00000000       0.00000000       0.00000000       0.00000000
O        1.95000000       0.00000000       2.05000000       0.00000000       0.00000000       0.00000000
O        0.00000000       1.95000000       2.05000000       0.00000000       0.00000000       0.00000000
5
Lattice="3.9 0.0 0.0 0.0 3.9 0.0 0.0 0.0 4.1" Properties=species:S:1:pos:R:3:REF_forces:R:3 REF_energy=0.031179246238058407 REF_electric_field="0.0 0.0 -0.05" REF_polarization="0.0 0.0 0.009094002840094153" REF_mode_displacement=0.09777777777777777 label_source="fixed-cell analytic Landau field-switching toy; not DFT or experiment" config_type=train_d_16_ez_4 pbc="T T T"
Ba       0.00000000       0.00000000       0.00000000       0.00000000       0.00000000       0.00000000
Ti       1.95000000       1.95000000       2.14777778       0.00000000       0.00000000      -0.06179969
O        1.95000000       1.95000000       0.00000000       0.00000000       0.00000000       0.00000000
O        1.95000000       0.00000000       2.05000000       0.00000000       0.00000000       0.00000000
O        0.00000000       1.95000000       2.05000000       0.00000000       0.00000000       0.00000000
5
Lattice="3.9 0.0 0.0 0.0 3.9 0.0 0.0 0.0 4.1" Properties=species:S:1:pos:R:3:REF_forces:R:3 REF_energy=0.025508135126947298 REF_electric_field="0.0 0.0 -0.04" REF_polarization="0.0 0.0 0.009094002840094153" REF_mode_displacement=0.09777777777777777 label_source="fixed-cell analytic Landau field-switching toy; not DFT or experiment" config_type=train_d_16_ez_5 pbc="T T T"
Ba       0.00000000       0.00000000       0.00000000       0.00000000       0.00000000       0.00000000
Ti       1.95000000       1.95000000       2.14777778       0.00000000       0.00000000      -0.00379969
O        1.95000000       1.95000000       0.00000000       0.00000000       0.00000000       0.00000000
O        1.95000000       0.00000000       2.05000000       0.00000000       0.00000000       0.00000000
O        0.00000000       1.95000000       2.05000000       0.00000000       0.00000000       0.00000000
5
Lattice="3.9 0.0 0.0 0.0 3.9 0.0 0.0 0.0 4.1" Properties=species:S:1:pos:R:3:REF_forces:R:3 REF_energy=0.014165912904725077 REF_electric_field="0.0 0.0 -0.02" REF_polarization="0.0 0.0 0.009094002840094153" REF_mode_displacement=0.09777777777777777 label_source="fixed-cell analytic Landau field-switching toy; not DFT or experiment" config_type=train_d_16_ez_6 pbc="T T T"
Ba       0.00000000       0.00000000       0.00000000       0.00000000       0.00000000       0.00000000
Ti       1.95000000       1.95000000       2.14777778       0.00000000       0.00000000       0.11220031
O        1.95000000       1.95000000       0.00000000       0.00000000       0.00000000       0.00000000
O        1.95000000       0.00000000       2.05000000       0.00000000       0.00000000       0.00000000
O        0.00000000       1.95000000       2.05000000       0.00000000       0.00000000       0.00000000
5
Lattice="3.9 0.0 0.0 0.0 3.9 0.0 0.0 0.0 4.1" Properties=species:S:1:pos:R:3:REF_forces:R:3 REF_energy=0.0028236906825028565 REF_electric_field="0.0 0.0 0.0" REF_polarization="0.0 0.0 0.009094002840094153" REF_mode_displacement=0.09777777777777777 label_source="fixed-cell analytic Landau field-switching toy; not DFT or experiment" config_type=train_d_16_ez_7 pbc="T T T"
Ba       0.00000000       0.00000000       0.00000000       0.00000000       0.00000000       0.00000000
Ti       1.95000000       1.95000000       2.14777778       0.00000000       0.00000000       0.22820031
O        1.95000000       1.95000000       0.00000000       0.00000000       0.00000000       0.00000000
O        1.95000000       0.00000000       2.05000000       0.00000000       0.00000000       0.00000000
O        0.00000000       1.95000000       2.05000000       0.00000000       0.00000000       0.00000000
5
Lattice="3.9 0.0 0.0 0.0 3.9 0.0 0.0 0.0 4.1" Properties=species:S:1:pos:R:3:REF_forces:R:3 REF_energy=-0.008518531539719364 REF_electric_field="0.0 0.0 0.02" REF_polarization="0.0 0.0 0.009094002840094153" REF_mode_displacement=0.09777777777777777 label_source="fixed-cell analytic Landau field-switching toy; not DFT or experiment" config_type=train_d_16_ez_8 pbc="T T T"
Ba       0.00000000       0.00000000       0.00000000       0.00000000       0.00000000       0.00000000
Ti       1.95000000       1.95000000       2.14777778       0.00000000       0.00000000       0.34420031
O        1.95000000       1.95000000       0.00000000       0.00000000       0.00000000       0.00000000
O        1.95000000       0.00000000       2.05000000       0.00000000       0.00000000       0.00000000
O        0.00000000       1.95000000       2.05000000       0.00000000       0.00000000       0.00000000
5
Lattice="3.9 0.0 0.0 0.0 3.9 0.0 0.0 0.0 4.1" Properties=species:S:1:pos:R:3:REF_forces:R:3 REF_energy=-0.019860753761941585 REF_electric_field="0.0 0.0 0.04" REF_polarization="0.0 0.0 0.009094002840094153" REF_mode_displacement=0.09777777777777777 label_source="fixed-cell analytic Landau field-switching toy; not DFT or experiment" config_type=train_d_16_ez_9 pbc="T T T"
Ba       0.00000000       0.00000000       0.00000000       0.00000000       0.00000000       0.00000000
Ti       1.95000000       1.95000000       2.14777778       0.00000000       0.00000000       0.46020031
O        1.95000000       1.95000000       0.00000000       0.00000000       0.00000000       0.00000000
O        1.95000000       0.00000000       2.05000000       0.00000000       0.00000000       0.00000000
O        0.00000000       1.95000000       2.05000000       0.00000000       0.00000000       0.00000000
5
Lattice="3.9 0.0 0.0 0.0 3.9 0.0 0.0 0.0 4.1" Properties=species:S:1:pos:R:3:REF_forces:R:3 REF_energy=-0.025531864873052694 REF_electric_field="0.0 0.0 0.05" REF_polarization="0.0 0.0 0.009094002840094153" REF_mode_displacement=0.09777777777777777 label_source="fixed-cell analytic Landau field-switching toy; not DFT or experiment" config_type=train_d_16_ez_10 pbc="T T T"
Ba       0.00000000       0.00000000       0.00000000       0.00000000       0.00000000       0.00000000
Ti       1.95000000       1.95000000       2.14777778       0.00000000       0.00000000       0.51820031
O        1.95000000       1.95000000       0.00000000       0.00000000       0.00000000       0.00000000
O        1.95000000       0.00000000       2.05000000       0.00000000       0.00000000       0.00000000
O        0.00000000       1.95000000       2.05000000       0.00000000       0.00000000       0.00000000
5
Lattice="3.9 0.0 0.0 0.0 3.9 0.0 0.0 0.0 4.1" Properties=species:S:1:pos:R:3:REF_forces:R:3 REF_energy=-0.0312029759841638 REF_electric_field="0.0 0.0 0.06" REF_polarization="0.0 0.0 0.009094002840094153" REF_mode_displacement=0.09777777777777777 label_source="fixed-cell analytic Landau field-switching toy; not DFT or experiment" config_type=train_d_16_ez_11 pbc="T T T"
Ba       0.00000000       0.00000000       0.00000000       0.00000000       0.00000000       0.00000000
Ti       1.95000000       1.95000000       2.14777778       0.00000000       0.00000000       0.57620031
O        1.95000000       1.95000000       0.00000000       0.00000000       0.00000000       0.00000000
O        1.95000000       0.00000000       2.05000000       0.00000000       0.00000000       0.00000000
O        0.00000000       1.95000000       2.05000000       0.00000000       0.00000000       0.00000000
5
Lattice="3.9 0.0 0.0 0.0 3.9 0.0 0.0 0.0 4.1" Properties=species:S:1:pos:R:3:REF_forces:R:3 REF_energy=-0.042545198206386026 REF_electric_field="0.0 0.0 0.08" REF_polarization="0.0 0.0 0.009094002840094153" REF_mode_displacement=0.09777777777777777 label_source="fixed-cell analytic Landau field-switching toy; not DFT or experiment" config_type=train_d_16_ez_12 pbc="T T T"
Ba       0.00000000       0.00000000       0.00000000       0.00000000       0.00000000       0.00000000
Ti       1.95000000       1.95000000       2.14777778       0.00000000       0.00000000       0.69220031
O        1.95000000       1.95000000       0.00000000       0.00000000       0.00000000       0.00000000
O        1.95000000       0.00000000       2.05000000       0.00000000       0.00000000       0.00000000
O        0.00000000       1.95000000       2.05000000       0.00000000       0.00000000       0.00000000
5
Lattice="3.9 0.0 0.0 0.0 3.9 0.0 0.0 0.0 4.1" Properties=species:S:1:pos:R:3:REF_forces:R:3 REF_energy=-0.053887420428608244 REF_electric_field="0.0 0.0 0.1" REF_polarization="0.0 0.0 0.009094002840094153" REF_mode_displacement=0.09777777777777777 label_source="fixed-cell analytic Landau field-switching toy; not DFT or experiment" config_type=train_d_16_ez_13 pbc="T T T"
Ba       0.00000000       0.00000000       0.00000000       0.00000000       0.00000000       0.00000000
Ti       1.95000000       1.95000000       2.14777778       0.00000000       0.00000000       0.80820031
O        1.95000000       1.95000000       0.00000000       0.00000000       0.00000000       0.00000000
O        1.95000000       0.00000000       2.05000000       0.00000000       0.00000000       0.00000000
O        0.00000000       1.95000000       2.05000000       0.00000000       0.00000000       0.00000000
5
Lattice="3.9 0.0 0.0 0.0 3.9 0.0 0.0 0.0 4.1" Properties=species:S:1:pos:R:3:REF_forces:R:3 REF_energy=-0.06522964265083045 REF_electric_field="0.0 0.0 0.12" REF_polarization="0.0 0.0 0.009094002840094153" REF_mode_displacement=0.09777777777777777 label_source="fixed-cell analytic Landau field-switching toy; not DFT or experiment" config_type=train_d_16_ez_14 pbc="T T T"
Ba       0.00000000       0.00000000       0.00000000       0.00000000       0.00000000       0.00000000
Ti       1.95000000       1.95000000       2.14777778       0.00000000       0.00000000       0.92420031
O        1.95000000       1.95000000       0.00000000       0.00000000       0.00000000       0.00000000
O        1.95000000       0.00000000       2.05000000       0.00000000       0.00000000       0.00000000
O        0.00000000       1.95000000       2.05000000       0.00000000       0.00000000       0.00000000
5
Lattice="3.9 0.0 0.0 0.0 3.9 0.0 0.0 0.0 4.1" Properties=species:S:1:pos:R:3:REF_forces:R:3 REF_energy=0.08352 REF_electric_field="0.0 0.0 -0.12" REF_polarization="0.0 0.0 0.01116082166738828" REF_mode_displacement=0.12 label_source="fixed-cell analytic Landau field-switching toy; not DFT or experiment" config_type=train_d_17_ez_0 pbc="T T T"
Ba       0.00000000       0.00000000       0.00000000       0.00000000       0.00000000       0.00000000
Ti       1.95000000       1.95000000       2.17000000       0.00000000       0.00000000      -0.69600000
O        1.95000000       1.95000000       0.00000000       0.00000000       0.00000000       0.00000000
O        1.95000000       0.00000000       2.05000000       0.00000000       0.00000000       0.00000000
O        0.00000000       1.95000000       2.05000000       0.00000000       0.00000000       0.00000000
5
Lattice="3.9 0.0 0.0 0.0 3.9 0.0 0.0 0.0 4.1" Properties=species:S:1:pos:R:3:REF_forces:R:3 REF_energy=0.0696 REF_electric_field="0.0 0.0 -0.1" REF_polarization="0.0 0.0 0.01116082166738828" REF_mode_displacement=0.12 label_source="fixed-cell analytic Landau field-switching toy; not DFT or experiment" config_type=train_d_17_ez_1 pbc="T T T"
Ba       0.00000000       0.00000000       0.00000000       0.00000000       0.00000000       0.00000000
Ti       1.95000000       1.95000000       2.17000000       0.00000000       0.00000000      -0.58000000
O        1.95000000       1.95000000       0.00000000       0.00000000       0.00000000       0.00000000
O        1.95000000       0.00000000       2.05000000       0.00000000       0.00000000       0.00000000
O        0.00000000       1.95000000       2.05000000       0.00000000       0.00000000       0.00000000
5
Lattice="3.9 0.0 0.0 0.0 3.9 0.0 0.0 0.0 4.1" Properties=species:S:1:pos:R:3:REF_forces:R:3 REF_energy=0.05568 REF_electric_field="0.0 0.0 -0.08" REF_polarization="0.0 0.0 0.01116082166738828" REF_mode_displacement=0.12 label_source="fixed-cell analytic Landau field-switching toy; not DFT or experiment" config_type=train_d_17_ez_2 pbc="T T T"
Ba       0.00000000       0.00000000       0.00000000       0.00000000       0.00000000       0.00000000
Ti       1.95000000       1.95000000       2.17000000       0.00000000       0.00000000      -0.46400000
O        1.95000000       1.95000000       0.00000000       0.00000000       0.00000000       0.00000000
O        1.95000000       0.00000000       2.05000000       0.00000000       0.00000000       0.00000000
O        0.00000000       1.95000000       2.05000000       0.00000000       0.00000000       0.00000000
5
Lattice="3.9 0.0 0.0 0.0 3.9 0.0 0.0 0.0 4.1" Properties=species:S:1:pos:R:3:REF_forces:R:3 REF_energy=0.04176 REF_electric_field="0.0 0.0 -0.06" REF_polarization="0.0 0.0 0.01116082166738828" REF_mode_displacement=0.12 label_source="fixed-cell analytic Landau field-switching toy; not DFT or experiment" config_type=train_d_17_ez_3 pbc="T T T"
Ba       0.00000000       0.00000000       0.00000000       0.00000000       0.00000000       0.00000000
Ti       1.95000000       1.95000000       2.17000000       0.00000000       0.00000000      -0.34800000
O        1.95000000       1.95000000       0.00000000       0.00000000       0.00000000       0.00000000
O        1.95000000       0.00000000       2.05000000       0.00000000       0.00000000       0.00000000
O        0.00000000       1.95000000       2.05000000       0.00000000       0.00000000       0.00000000
5
Lattice="3.9 0.0 0.0 0.0 3.9 0.0 0.0 0.0 4.1" Properties=species:S:1:pos:R:3:REF_forces:R:3 REF_energy=0.0348 REF_electric_field="0.0 0.0 -0.05" REF_polarization="0.0 0.0 0.01116082166738828" REF_mode_displacement=0.12 label_source="fixed-cell analytic Landau field-switching toy; not DFT or experiment" config_type=train_d_17_ez_4 pbc="T T T"
Ba       0.00000000       0.00000000       0.00000000       0.00000000       0.00000000       0.00000000
Ti       1.95000000       1.95000000       2.17000000       0.00000000       0.00000000      -0.29000000
O        1.95000000       1.95000000       0.00000000       0.00000000       0.00000000       0.00000000
O        1.95000000       0.00000000       2.05000000       0.00000000       0.00000000       0.00000000
O        0.00000000       1.95000000       2.05000000       0.00000000       0.00000000       0.00000000
5
Lattice="3.9 0.0 0.0 0.0 3.9 0.0 0.0 0.0 4.1" Properties=species:S:1:pos:R:3:REF_forces:R:3 REF_energy=0.02784 REF_electric_field="0.0 0.0 -0.04" REF_polarization="0.0 0.0 0.01116082166738828" REF_mode_displacement=0.12 label_source="fixed-cell analytic Landau field-switching toy; not DFT or experiment" config_type=train_d_17_ez_5 pbc="T T T"
Ba       0.00000000       0.00000000       0.00000000       0.00000000       0.00000000       0.00000000
Ti       1.95000000       1.95000000       2.17000000       0.00000000       0.00000000      -0.23200000
O        1.95000000       1.95000000       0.00000000       0.00000000       0.00000000       0.00000000
O        1.95000000       0.00000000       2.05000000       0.00000000       0.00000000       0.00000000
O        0.00000000       1.95000000       2.05000000       0.00000000       0.00000000       0.00000000
5
Lattice="3.9 0.0 0.0 0.0 3.9 0.0 0.0 0.0 4.1" Properties=species:S:1:pos:R:3:REF_forces:R:3 REF_energy=0.01392 REF_electric_field="0.0 0.0 -0.02" REF_polarization="0.0 0.0 0.01116082166738828" REF_mode_displacement=0.12 label_source="fixed-cell analytic Landau field-switching toy; not DFT or experiment" config_type=train_d_17_ez_6 pbc="T T T"
Ba       0.00000000       0.00000000       0.00000000       0.00000000       0.00000000       0.00000000
Ti       1.95000000       1.95000000       2.17000000       0.00000000       0.00000000      -0.11600000
O        1.95000000       1.95000000       0.00000000       0.00000000       0.00000000       0.00000000
O        1.95000000       0.00000000       2.05000000       0.00000000       0.00000000       0.00000000
O        0.00000000       1.95000000       2.05000000       0.00000000       0.00000000       0.00000000
5
Lattice="3.9 0.0 0.0 0.0 3.9 0.0 0.0 0.0 4.1" Properties=species:S:1:pos:R:3:REF_forces:R:3 REF_energy=0.0 REF_electric_field="0.0 0.0 0.0" REF_polarization="0.0 0.0 0.01116082166738828" REF_mode_displacement=0.12 label_source="fixed-cell analytic Landau field-switching toy; not DFT or experiment" config_type=train_d_17_ez_7 pbc="T T T"
Ba       0.00000000       0.00000000       0.00000000       0.00000000       0.00000000       0.00000000
Ti       1.95000000       1.95000000       2.17000000       0.00000000       0.00000000      -0.00000000
O        1.95000000       1.95000000       0.00000000       0.00000000       0.00000000       0.00000000
O        1.95000000       0.00000000       2.05000000       0.00000000       0.00000000       0.00000000
O        0.00000000       1.95000000       2.05000000       0.00000000       0.00000000       0.00000000
5
Lattice="3.9 0.0 0.0 0.0 3.9 0.0 0.0 0.0 4.1" Properties=species:S:1:pos:R:3:REF_forces:R:3 REF_energy=-0.01392 REF_electric_field="0.0 0.0 0.02" REF_polarization="0.0 0.0 0.01116082166738828" REF_mode_displacement=0.12 label_source="fixed-cell analytic Landau field-switching toy; not DFT or experiment" config_type=train_d_17_ez_8 pbc="T T T"
Ba       0.00000000       0.00000000       0.00000000       0.00000000       0.00000000       0.00000000
Ti       1.95000000       1.95000000       2.17000000       0.00000000       0.00000000       0.11600000
O        1.95000000       1.95000000       0.00000000       0.00000000       0.00000000       0.00000000
O        1.95000000       0.00000000       2.05000000       0.00000000       0.00000000       0.00000000
O        0.00000000       1.95000000       2.05000000       0.00000000       0.00000000       0.00000000
5
Lattice="3.9 0.0 0.0 0.0 3.9 0.0 0.0 0.0 4.1" Properties=species:S:1:pos:R:3:REF_forces:R:3 REF_energy=-0.02784 REF_electric_field="0.0 0.0 0.04" REF_polarization="0.0 0.0 0.01116082166738828" REF_mode_displacement=0.12 label_source="fixed-cell analytic Landau field-switching toy; not DFT or experiment" config_type=train_d_17_ez_9 pbc="T T T"
Ba       0.00000000       0.00000000       0.00000000       0.00000000       0.00000000       0.00000000
Ti       1.95000000       1.95000000       2.17000000       0.00000000       0.00000000       0.23200000
O        1.95000000       1.95000000       0.00000000       0.00000000       0.00000000       0.00000000
O        1.95000000       0.00000000       2.05000000       0.00000000       0.00000000       0.00000000
O        0.00000000       1.95000000       2.05000000       0.00000000       0.00000000       0.00000000
5
Lattice="3.9 0.0 0.0 0.0 3.9 0.0 0.0 0.0 4.1" Properties=species:S:1:pos:R:3:REF_forces:R:3 REF_energy=-0.0348 REF_electric_field="0.0 0.0 0.05" REF_polarization="0.0 0.0 0.01116082166738828" REF_mode_displacement=0.12 label_source="fixed-cell analytic Landau field-switching toy; not DFT or experiment" config_type=train_d_17_ez_10 pbc="T T T"
Ba       0.00000000       0.00000000       0.00000000       0.00000000       0.00000000       0.00000000
Ti       1.95000000       1.95000000       2.17000000       0.00000000       0.00000000       0.29000000
O        1.95000000       1.95000000       0.00000000       0.00000000       0.00000000       0.00000000
O        1.95000000       0.00000000       2.05000000       0.00000000       0.00000000       0.00000000
O        0.00000000       1.95000000       2.05000000       0.00000000       0.00000000       0.00000000
5
Lattice="3.9 0.0 0.0 0.0 3.9 0.0 0.0 0.0 4.1" Properties=species:S:1:pos:R:3:REF_forces:R:3 REF_energy=-0.04176 REF_electric_field="0.0 0.0 0.06" REF_polarization="0.0 0.0 0.01116082166738828" REF_mode_displacement=0.12 label_source="fixed-cell analytic Landau field-switching toy; not DFT or experiment" config_type=train_d_17_ez_11 pbc="T T T"
Ba       0.00000000       0.00000000       0.00000000       0.00000000       0.00000000       0.00000000
Ti       1.95000000       1.95000000       2.17000000       0.00000000       0.00000000       0.34800000
O        1.95000000       1.95000000       0.00000000       0.00000000       0.00000000       0.00000000
O        1.95000000       0.00000000       2.05000000       0.00000000       0.00000000       0.00000000
O        0.00000000       1.95000000       2.05000000       0.00000000       0.00000000       0.00000000
5
Lattice="3.9 0.0 0.0 0.0 3.9 0.0 0.0 0.0 4.1" Properties=species:S:1:pos:R:3:REF_forces:R:3 REF_energy=-0.05568 REF_electric_field="0.0 0.0 0.08" REF_polarization="0.0 0.0 0.01116082166738828" REF_mode_displacement=0.12 label_source="fixed-cell analytic Landau field-switching toy; not DFT or experiment" config_type=train_d_17_ez_12 pbc="T T T"
Ba       0.00000000       0.00000000       0.00000000       0.00000000       0.00000000       0.00000000
Ti       1.95000000       1.95000000       2.17000000       0.00000000       0.00000000       0.46400000
O        1.95000000       1.95000000       0.00000000       0.00000000       0.00000000       0.00000000
O        1.95000000       0.00000000       2.05000000       0.00000000       0.00000000       0.00000000
O        0.00000000       1.95000000       2.05000000       0.00000000       0.00000000       0.00000000
5
Lattice="3.9 0.0 0.0 0.0 3.9 0.0 0.0 0.0 4.1" Properties=species:S:1:pos:R:3:REF_forces:R:3 REF_energy=-0.0696 REF_electric_field="0.0 0.0 0.1" REF_polarization="0.0 0.0 0.01116082166738828" REF_mode_displacement=0.12 label_source="fixed-cell analytic Landau field-switching toy; not DFT or experiment" config_type=train_d_17_ez_13 pbc="T T T"
Ba       0.00000000       0.00000000       0.00000000       0.00000000       0.00000000       0.00000000
Ti       1.95000000       1.95000000       2.17000000       0.00000000       0.00000000       0.58000000
O        1.95000000       1.95000000       0.00000000       0.00000000       0.00000000       0.00000000
O        1.95000000       0.00000000       2.05000000       0.00000000       0.00000000       0.00000000
O        0.00000000       1.95000000       2.05000000       0.00000000       0.00000000       0.00000000
5
Lattice="3.9 0.0 0.0 0.0 3.9 0.0 0.0 0.0 4.1" Properties=species:S:1:pos:R:3:REF_forces:R:3 REF_energy=-0.08352 REF_electric_field="0.0 0.0 0.12" REF_polarization="0.0 0.0 0.01116082166738828" REF_mode_displacement=0.12 label_source="fixed-cell analytic Landau field-switching toy; not DFT or experiment" config_type=train_d_17_ez_14 pbc="T T T"
Ba       0.00000000       0.00000000       0.00000000       0.00000000       0.00000000       0.00000000
Ti       1.95000000       1.95000000       2.17000000       0.00000000       0.00000000       0.69600000
O        1.95000000       1.95000000       0.00000000       0.00000000       0.00000000       0.00000000
O        1.95000000       0.00000000       2.05000000       0.00000000       0.00000000       0.00000000
O        0.00000000       1.95000000       2.05000000       0.00000000       0.00000000       0.00000000
5
Lattice="3.9 0.0 0.0 0.0 3.9 0.0 0.0 0.0 4.1" Properties=species:S:1:pos:R:3:REF_forces:R:3 REF_energy=0.085101598225391 REF_electric_field="0.0 0.0 -0.12" REF_polarization="0.0 0.0 0.011367503550117695" REF_mode_displacement=0.12222222222222226 label_source="fixed-cell analytic Landau field-switching toy; not DFT or experiment" config_type=train_d_18_ez_0 pbc="T T T"
Ba       0.00000000       0.00000000       0.00000000       0.00000000       0.00000000       0.00000000
Ti       1.95000000       1.95000000       2.17222222       0.00000000       0.00000000      -0.72772683
O        1.95000000       1.95000000       0.00000000       0.00000000       0.00000000       0.00000000
O        1.95000000       0.00000000       2.05000000       0.00000000       0.00000000       0.00000000
O        0.00000000       1.95000000       2.05000000       0.00000000       0.00000000       0.00000000
5
Lattice="3.9 0.0 0.0 0.0 3.9 0.0 0.0 0.0 4.1" Properties=species:S:1:pos:R:3:REF_forces:R:3 REF_energy=0.07092382044761322 REF_electric_field="0.0 0.0 -0.1" REF_polarization="0.0 0.0 0.011367503550117695" REF_mode_displacement=0.12222222222222226 label_source="fixed-cell analytic Landau field-switching toy; not DFT or experiment" config_type=train_d_18_ez_1 pbc="T T T"
Ba       0.00000000       0.00000000       0.00000000       0.00000000       0.00000000       0.00000000
Ti       1.95000000       1.95000000       2.17222222       0.00000000       0.00000000      -0.61172683
O        1.95000000       1.95000000       0.00000000       0.00000000       0.00000000       0.00000000
O        1.95000000       0.00000000       2.05000000       0.00000000       0.00000000       0.00000000
O        0.00000000       1.95000000       2.05000000       0.00000000       0.00000000       0.00000000
5
Lattice="3.9 0.0 0.0 0.0 3.9 0.0 0.0 0.0 4.1" Properties=species:S:1:pos:R:3:REF_forces:R:3 REF_energy=0.05674604266983543 REF_electric_field="0.0 0.0 -0.08" REF_polarization="0.0 0.0 0.011367503550117695" REF_mode_displacement=0.12222222222222226 label_source="fixed-cell analytic Landau field-switching toy; not DFT or experiment" config_type=train_d_18_ez_2 pbc="T T T"
Ba       0.00000000       0.00000000       0.00000000       0.00000000       0.00000000       0.00000000
Ti       1.95000000       1.95000000       2.17222222       0.00000000       0.00000000      -0.49572683
O        1.95000000       1.95000000       0.00000000       0.00000000       0.00000000       0.00000000
O        1.95000000       0.00000000       2.05000000       0.00000000       0.00000000       0.00000000
O        0.00000000       1.95000000       2.05000000       0.00000000       0.00000000       0.00000000
5
Lattice="3.9 0.0 0.0 0.0 3.9 0.0 0.0 0.0 4.1" Properties=species:S:1:pos:R:3:REF_forces:R:3 REF_energy=0.042568264892057645 REF_electric_field="0.0 0.0 -0.06" REF_polarization="0.0 0.0 0.011367503550117695" REF_mode_displacement=0.12222222222222226 label_source="fixed-cell analytic Landau field-switching toy; not DFT or experiment" config_type=train_d_18_ez_3 pbc="T T T"
Ba       0.00000000       0.00000000       0.00000000       0.00000000       0.00000000       0.00000000
Ti       1.95000000       1.95000000       2.17222222       0.00000000       0.00000000      -0.37972683
O        1.95000000       1.95000000       0.00000000       0.00000000       0.00000000       0.00000000
O        1.95000000       0.00000000       2.05000000       0.00000000       0.00000000       0.00000000
O        0.00000000       1.95000000       2.05000000       0.00000000       0.00000000       0.00000000
5
Lattice="3.9 0.0 0.0 0.0 3.9 0.0 0.0 0.0 4.1" Properties=species:S:1:pos:R:3:REF_forces:R:3 REF_energy=0.03547937600316876 REF_electric_field="0.0 0.0 -0.05" REF_polarization="0.0 0.0 0.011367503550117695" REF_mode_displacement=0.12222222222222226 label_source="fixed-cell analytic Landau field-switching toy; not DFT or experiment" config_type=train_d_18_ez_4 pbc="T T T"
Ba       0.00000000       0.00000000       0.00000000       0.00000000       0.00000000       0.00000000
Ti       1.95000000       1.95000000       2.17222222       0.00000000       0.00000000      -0.32172683
O        1.95000000       1.95000000       0.00000000       0.00000000       0.00000000       0.00000000
O        1.95000000       0.00000000       2.05000000       0.00000000       0.00000000       0.00000000
O        0.00000000       1.95000000       2.05000000       0.00000000       0.00000000       0.00000000
5
Lattice="3.9 0.0 0.0 0.0 3.9 0.0 0.0 0.0 4.1" Properties=species:S:1:pos:R:3:REF_forces:R:3 REF_energy=0.028390487114279866 REF_electric_field="0.0 0.0 -0.04" REF_polarization="0.0 0.0 0.011367503550117695" REF_mode_displacement=0.12222222222222226 label_source="fixed-cell analytic Landau field-switching toy; not DFT or experiment" config_type=train_d_18_ez_5 pbc="T T T"
Ba       0.00000000       0.00000000       0.00000000       0.00000000       0.00000000       0.00000000
Ti       1.95000000       1.95000000       2.17222222       0.00000000       0.00000000      -0.26372683
O        1.95000000       1.95000000       0.00000000       0.00000000       0.00000000       0.00000000
O        1.95000000       0.00000000       2.05000000       0.00000000       0.00000000       0.00000000
O        0.00000000       1.95000000       2.05000000       0.00000000       0.00000000       0.00000000
5
Lattice="3.9 0.0 0.0 0.0 3.9 0.0 0.0 0.0 4.1" Properties=species:S:1:pos:R:3:REF_forces:R:3 REF_energy=0.014212709336502082 REF_electric_field="0.0 0.0 -0.02" REF_polarization="0.0 0.0 0.011367503550117695" REF_mode_displacement=0.12222222222222226 label_source="fixed-cell analytic Landau field-switching toy; not DFT or experiment" config_type=train_d_18_ez_6 pbc="T T T"
Ba       0.00000000       0.00000000       0.00000000       0.00000000       0.00000000       0.00000000
Ti       1.95000000       1.95000000       2.17222222       0.00000000       0.00000000      -0.14772683
O        1.95000000       1.95000000       0.00000000       0.00000000       0.00000000       0.00000000
O        1.95000000       0.00000000       2.05000000       0.00000000       0.00000000       0.00000000
O        0.00000000       1.95000000       2.05000000       0.00000000       0.00000000       0.00000000
5
Lattice="3.9 0.0 0.0 0.0 3.9 0.0 0.0 0.0 4.1" Properties=species:S:1:pos:R:3:REF_forces:R:3 REF_energy=3.493155872429998e-05 REF_electric_field="0.0 0.0 0.0" REF_polarization="0.0 0.0 0.011367503550117695" REF_mode_displacement=0.12222222222222226 label_source="fixed-cell analytic Landau field-switching toy; not DFT or experiment" config_type=train_d_18_ez_7 pbc="T T T"
Ba       0.00000000       0.00000000       0.00000000       0.00000000       0.00000000       0.00000000
Ti       1.95000000       1.95000000       2.17222222       0.00000000       0.00000000      -0.03172683
O        1.95000000       1.95000000       0.00000000       0.00000000       0.00000000       0.00000000
O        1.95000000       0.00000000       2.05000000       0.00000000       0.00000000       0.00000000
O        0.00000000       1.95000000       2.05000000       0.00000000       0.00000000       0.00000000
5
Lattice="3.9 0.0 0.0 0.0 3.9 0.0 0.0 0.0 4.1" Properties=species:S:1:pos:R:3:REF_forces:R:3 REF_energy=-0.014142846219053483 REF_electric_field="0.0 0.0 0.02" REF_polarization="0.0 0.0 0.011367503550117695" REF_mode_displacement=0.12222222222222226 label_source="fixed-cell analytic Landau field-switching toy; not DFT or experiment" config_type=train_d_18_ez_8 pbc="T T T"
Ba       0.00000000       0.00000000       0.00000000       0.00000000       0.00000000       0.00000000
Ti       1.95000000       1.95000000       2.17222222       0.00000000       0.00000000       0.08427317
O        1.95000000       1.95000000       0.00000000       0.00000000       0.00000000       0.00000000
O        1.95000000       0.00000000       2.05000000       0.00000000       0.00000000       0.00000000
O        0.00000000       1.95000000       2.05000000       0.00000000       0.00000000       0.00000000
5
Lattice="3.9 0.0 0.0 0.0 3.9 0.0 0.0 0.0 4.1" Properties=species:S:1:pos:R:3:REF_forces:R:3 REF_energy=-0.028320623996831263 REF_electric_field="0.0 0.0 0.04" REF_polarization="0.0 0.0 0.011367503550117695" REF_mode_displacement=0.12222222222222226 label_source="fixed-cell analytic Landau field-switching toy; not DFT or experiment" config_type=train_d_18_ez_9 pbc="T T T"
Ba       0.00000000       0.00000000       0.00000000       0.00000000       0.00000000       0.00000000
Ti       1.95000000       1.95000000       2.17222222       0.00000000       0.00000000       0.20027317
O        1.95000000       1.95000000       0.00000000       0.00000000       0.00000000       0.00000000
O        1.95000000       0.00000000       2.05000000       0.00000000       0.00000000       0.00000000
O        0.00000000       1.95000000       2.05000000       0.00000000       0.00000000       0.00000000
5
Lattice="3.9 0.0 0.0 0.0 3.9 0.0 0.0 0.0 4.1" Properties=species:S:1:pos:R:3:REF_forces:R:3 REF_energy=-0.03540951288572016 REF_electric_field="0.0 0.0 0.05" REF_polarization="0.0 0.0 0.011367503550117695" REF_mode_displacement=0.12222222222222226 label_source="fixed-cell analytic Landau field-switching toy; not DFT or experiment" config_type=train_d_18_ez_10 pbc="T T T"
Ba       0.00000000       0.00000000       0.00000000       0.00000000       0.00000000       0.00000000
Ti       1.95000000       1.95000000       2.17222222       0.00000000       0.00000000       0.25827317
O        1.95000000       1.95000000       0.00000000       0.00000000       0.00000000       0.00000000
O        1.95000000       0.00000000       2.05000000       0.00000000       0.00000000       0.00000000
O        0.00000000       1.95000000       2.05000000       0.00000000       0.00000000       0.00000000
5
Lattice="3.9 0.0 0.0 0.0 3.9 0.0 0.0 0.0 4.1" Properties=species:S:1:pos:R:3:REF_forces:R:3 REF_energy=-0.04249840177460905 REF_electric_field="0.0 0.0 0.06" REF_polarization="0.0 0.0 0.011367503550117695" REF_mode_displacement=0.12222222222222226 label_source="fixed-cell analytic Landau field-switching toy; not DFT or experiment" config_type=train_d_18_ez_11 pbc="T T T"
Ba       0.00000000       0.00000000       0.00000000       0.00000000       0.00000000       0.00000000
Ti       1.95000000       1.95000000       2.17222222       0.00000000       0.00000000       0.31627317
O        1.95000000       1.95000000       0.00000000       0.00000000       0.00000000       0.00000000
O        1.95000000       0.00000000       2.05000000       0.00000000       0.00000000       0.00000000
O        0.00000000       1.95000000       2.05000000       0.00000000       0.00000000       0.00000000
5
Lattice="3.9 0.0 0.0 0.0 3.9 0.0 0.0 0.0 4.1" Properties=species:S:1:pos:R:3:REF_forces:R:3 REF_energy=-0.05667617955238683 REF_electric_field="0.0 0.0 0.08" REF_polarization="0.0 0.0 0.011367503550117695" REF_mode_displacement=0.12222222222222226 label_source="fixed-cell analytic Landau field-switching toy; not DFT or experiment" config_type=train_d_18_ez_12 pbc="T T T"
Ba       0.00000000       0.00000000       0.00000000       0.00000000       0.00000000       0.00000000
Ti       1.95000000       1.95000000       2.17222222       0.00000000       0.00000000       0.43227317
O        1.95000000       1.95000000       0.00000000       0.00000000       0.00000000       0.00000000
O        1.95000000       0.00000000       2.05000000       0.00000000       0.00000000       0.00000000
O        0.00000000       1.95000000       2.05000000       0.00000000       0.00000000       0.00000000
5
Lattice="3.9 0.0 0.0 0.0 3.9 0.0 0.0 0.0 4.1" Properties=species:S:1:pos:R:3:REF_forces:R:3 REF_energy=-0.07085395733016461 REF_electric_field="0.0 0.0 0.1" REF_polarization="0.0 0.0 0.011367503550117695" REF_mode_displacement=0.12222222222222226 label_source="fixed-cell analytic Landau field-switching toy; not DFT or experiment" config_type=train_d_18_ez_13 pbc="T T T"
Ba       0.00000000       0.00000000       0.00000000       0.00000000       0.00000000       0.00000000
Ti       1.95000000       1.95000000       2.17222222       0.00000000       0.00000000       0.54827317
O        1.95000000       1.95000000       0.00000000       0.00000000       0.00000000       0.00000000
O        1.95000000       0.00000000       2.05000000       0.00000000       0.00000000       0.00000000
O        0.00000000       1.95000000       2.05000000       0.00000000       0.00000000       0.00000000
5
Lattice="3.9 0.0 0.0 0.0 3.9 0.0 0.0 0.0 4.1" Properties=species:S:1:pos:R:3:REF_forces:R:3 REF_energy=-0.08503173510794239 REF_electric_field="0.0 0.0 0.12" REF_polarization="0.0 0.0 0.011367503550117695" REF_mode_displacement=0.12222222222222226 label_source="fixed-cell analytic Landau field-switching toy; not DFT or experiment" config_type=train_d_18_ez_14 pbc="T T T"
Ba       0.00000000       0.00000000       0.00000000       0.00000000       0.00000000       0.00000000
Ti       1.95000000       1.95000000       2.17222222       0.00000000       0.00000000       0.66427317
O        1.95000000       1.95000000       0.00000000       0.00000000       0.00000000       0.00000000
O        1.95000000       0.00000000       2.05000000       0.00000000       0.00000000       0.00000000
O        0.00000000       1.95000000       2.05000000       0.00000000       0.00000000       0.00000000
5
Lattice="3.9 0.0 0.0 0.0 3.9 0.0 0.0 0.0 4.1" Properties=species:S:1:pos:R:3:REF_forces:R:3 REF_energy=0.10817663161103494 REF_electric_field="0.0 0.0 -0.12" REF_polarization="0.0 0.0 0.013641004260141233" REF_mode_displacement=0.1466666666666667 label_source="fixed-cell analytic Landau field-switching toy; not DFT or experiment" config_type=train_d_19_ez_0 pbc="T T T"
Ba       0.00000000       0.00000000       0.00000000       0.00000000       0.00000000       0.00000000
Ti       1.95000000       1.95000000       2.19666667       0.00000000       0.00000000      -1.19897211
O        1.95000000       1.95000000       0.00000000       0.00000000       0.00000000       0.00000000
O        1.95000000       0.00000000       2.05000000       0.00000000       0.00000000       0.00000000
O        0.00000000       1.95000000       2.05000000       0.00000000       0.00000000       0.00000000
5
Lattice="3.9 0.0 0.0 0.0 3.9 0.0 0.0 0.0 4.1" Properties=species:S:1:pos:R:3:REF_forces:R:3 REF_energy=0.0911632982777016 REF_electric_field="0.0 0.0 -0.1" REF_polarization="0.0 0.0 0.013641004260141233" REF_mode_displacement=0.1466666666666667 label_source="fixed-cell analytic Landau field-switching toy; not DFT or experiment" config_type=train_d_19_ez_1 pbc="T T T"
Ba       0.00000000       0.00000000       0.00000000       0.00000000       0.00000000       0.00000000
Ti       1.95000000       1.95000000       2.19666667       0.00000000       0.00000000      -1.08297211
O        1.95000000       1.95000000       0.00000000       0.00000000       0.00000000       0.00000000
O        1.95000000       0.00000000       2.05000000       0.00000000       0.00000000       0.00000000
O        0.00000000       1.95000000       2.05000000       0.00000000       0.00000000       0.00000000
5
Lattice="3.9 0.0 0.0 0.0 3.9 0.0 0.0 0.0 4.1" Properties=species:S:1:pos:R:3:REF_forces:R:3 REF_energy=0.07414996494436826 REF_electric_field="0.0 0.0 -0.08" REF_polarization="0.0 0.0 0.013641004260141233" REF_mode_displacement=0.1466666666666667 label_source="fixed-cell analytic Landau field-switching toy; not DFT or experiment" config_type=train_d_19_ez_2 pbc="T T T"
Ba       0.00000000       0.00000000       0.00000000       0.00000000       0.00000000       0.00000000
Ti       1.95000000       1.95000000       2.19666667       0.00000000       0.00000000      -0.96697211
O        1.95000000       1.95000000       0.00000000       0.00000000       0.00000000       0.00000000
O        1.95000000       0.00000000       2.05000000       0.00000000       0.00000000       0.00000000
O        0.00000000       1.95000000       2.05000000       0.00000000       0.00000000       0.00000000
5
Lattice="3.9 0.0 0.0 0.0 3.9 0.0 0.0 0.0 4.1" Properties=species:S:1:pos:R:3:REF_forces:R:3 REF_energy=0.05713663161103493 REF_electric_field="0.0 0.0 -0.06" REF_polarization="0.0 0.0 0.013641004260141233" REF_mode_displacement=0.1466666666666667 label_source="fixed-cell analytic Landau field-switching toy; not DFT or experiment" config_type=train_d_19_ez_3 pbc="T T T"
Ba       0.00000000       0.00000000       0.00000000       0.00000000       0.00000000       0.00000000
Ti       1.95000000       1.95000000       2.19666667       0.00000000       0.00000000      -0.85097211
O        1.95000000       1.95000000       0.00000000       0.00000000       0.00000000       0.00000000
O        1.95000000       0.00000000       2.05000000       0.00000000       0.00000000       0.00000000
O        0.00000000       1.95000000       2.05000000       0.00000000       0.00000000       0.00000000
5
Lattice="3.9 0.0 0.0 0.0 3.9 0.0 0.0 0.0 4.1" Properties=species:S:1:pos:R:3:REF_forces:R:3 REF_energy=0.04862996494436826 REF_electric_field="0.0 0.0 -0.05" REF_polarization="0.0 0.0 0.013641004260141233" REF_mode_displacement=0.1466666666666667 label_source="fixed-cell analytic Landau field-switching toy; not DFT or experiment" config_type=train_d_19_ez_4 pbc="T T T"
Ba       0.00000000       0.00000000       0.00000000       0.00000000       0.00000000       0.00000000
Ti       1.95000000       1.95000000       2.19666667       0.00000000       0.00000000      -0.79297211
O        1.95000000       1.95000000       0.00000000       0.00000000       0.00000000       0.00000000
O        1.95000000       0.00000000       2.05000000       0.00000000       0.00000000       0.00000000
O        0.00000000       1.95000000       2.05000000       0.00000000       0.00000000       0.00000000
5
Lattice="3.9 0.0 0.0 0.0 3.9 0.0 0.0 0.0 4.1" Properties=species:S:1:pos:R:3:REF_forces:R:3 REF_energy=0.04012329827770159 REF_electric_field="0.0 0.0 -0.04" REF_polarization="0.0 0.0 0.013641004260141233" REF_mode_displacement=0.1466666666666667 label_source="fixed-cell analytic Landau field-switching toy; not DFT or experiment" config_type=train_d_19_ez_5 pbc="T T T"
Ba       0.00000000       0.00000000       0.00000000       0.00000000       0.00000000       0.00000000
Ti       1.95000000       1.95000000       2.19666667       0.00000000       0.00000000      -0.73497211
O        1.95000000       1.95000000       0.00000000       0.00000000       0.00000000       0.00000000
O        1.95000000       0.00000000       2.05000000       0.00000000       0.00000000       0.00000000
O        0.00000000       1.95000000       2.05000000       0.00000000       0.00000000       0.00000000
5
Lattice="3.9 0.0 0.0 0.0 3.9 0.0 0.0 0.0 4.1" Properties=species:S:1:pos:R:3:REF_forces:R:3 REF_energy=0.02310996494436826 REF_electric_field="0.0 0.0 -0.02" REF_polarization="0.0 0.0 0.013641004260141233" REF_mode_displacement=0.1466666666666667 label_source="fixed-cell analytic Landau field-switching toy; not DFT or experiment" config_type=train_d_19_ez_6 pbc="T T T"
Ba       0.00000000       0.00000000       0.00000000       0.00000000       0.00000000       0.00000000
Ti       1.95000000       1.95000000       2.19666667       0.00000000       0.00000000      -0.61897211
O        1.95000000       1.95000000       0.00000000       0.00000000       0.00000000       0.00000000
O        1.95000000       0.00000000       2.05000000       0.00000000       0.00000000       0.00000000
O        0.00000000       1.95000000       2.05000000       0.00000000       0.00000000       0.00000000
5
Lattice="3.9 0.0 0.0 0.0 3.9 0.0 0.0 0.0 4.1" Properties=species:S:1:pos:R:3:REF_forces:R:3 REF_energy=0.006096631611034925 REF_electric_field="0.0 0.0 0.0" REF_polarization="0.0 0.0 0.013641004260141233" REF_mode_displacement=0.1466666666666667 label_source="fixed-cell analytic Landau field-switching toy; not DFT or experiment" config_type=train_d_19_ez_7 pbc="T T T"
Ba       0.00000000       0.00000000       0.00000000       0.00000000       0.00000000       0.00000000
Ti       1.95000000       1.95000000       2.19666667       0.00000000       0.00000000      -0.50297211
O        1.95000000       1.95000000       0.00000000       0.00000000       0.00000000       0.00000000
O        1.95000000       0.00000000       2.05000000       0.00000000       0.00000000       0.00000000
O        0.00000000       1.95000000       2.05000000       0.00000000       0.00000000       0.00000000
5
Lattice="3.9 0.0 0.0 0.0 3.9 0.0 0.0 0.0 4.1" Properties=species:S:1:pos:R:3:REF_forces:R:3 REF_energy=-0.01091670172229841 REF_electric_field="0.0 0.0 0.02" REF_polarization="0.0 0.0 0.013641004260141233" REF_mode_displacement=0.1466666666666667 label_source="fixed-cell analytic Landau field-switching toy; not DFT or experiment" config_type=train_d_19_ez_8 pbc="T T T"
Ba       0.00000000       0.00000000       0.00000000       0.00000000       0.00000000       0.00000000
Ti       1.95000000       1.95000000       2.19666667       0.00000000       0.00000000      -0.38697211
O        1.95000000       1.95000000       0.00000000       0.00000000       0.00000000       0.00000000
O        1.95000000       0.00000000       2.05000000       0.00000000       0.00000000       0.00000000
O        0.00000000       1.95000000       2.05000000       0.00000000       0.00000000       0.00000000
5
Lattice="3.9 0.0 0.0 0.0 3.9 0.0 0.0 0.0 4.1" Properties=species:S:1:pos:R:3:REF_forces:R:3 REF_energy=-0.027930035055631745 REF_electric_field="0.0 0.0 0.04" REF_polarization="0.0 0.0 0.013641004260141233" REF_mode_displacement=0.1466666666666667 label_source="fixed-cell analytic Landau field-switching toy; not DFT or experiment" config_type=train_d_19_ez_9 pbc="T T T"
Ba       0.00000000       0.00000000       0.00000000       0.00000000       0.00000000       0.00000000
Ti       1.95000000       1.95000000       2.19666667       0.00000000       0.00000000      -0.27097211
O        1.95000000       1.95000000       0.00000000       0.00000000       0.00000000       0.00000000
O        1.95000000       0.00000000       2.05000000       0.00000000       0.00000000       0.00000000
O        0.00000000       1.95000000       2.05000000       0.00000000       0.00000000       0.00000000
5
Lattice="3.9 0.0 0.0 0.0 3.9 0.0 0.0 0.0 4.1" Properties=species:S:1:pos:R:3:REF_forces:R:3 REF_energy=-0.03643670172229842 REF_electric_field="0.0 0.0 0.05" REF_polarization="0.0 0.0 0.013641004260141233" REF_mode_displacement=0.1466666666666667 label_source="fixed-cell analytic Landau field-switching toy; not DFT or experiment" config_type=train_d_19_ez_10 pbc="T T T"
Ba       0.00000000       0.00000000       0.00000000       0.00000000       0.00000000       0.00000000
Ti       1.95000000       1.95000000       2.19666667       0.00000000       0.00000000      -0.21297211
O        1.95000000       1.95000000       0.00000000       0.00000000       0.00000000       0.00000000
O        1.95000000       0.00000000       2.05000000       0.00000000       0.00000000       0.00000000
O        0.00000000       1.95000000       2.05000000       0.00000000       0.00000000       0.00000000
5
Lattice="3.9 0.0 0.0 0.0 3.9 0.0 0.0 0.0 4.1" Properties=species:S:1:pos:R:3:REF_forces:R:3 REF_energy=-0.04494336838896509 REF_electric_field="0.0 0.0 0.06" REF_polarization="0.0 0.0 0.013641004260141233" REF_mode_displacement=0.1466666666666667 label_source="fixed-cell analytic Landau field-switching toy; not DFT or experiment" config_type=train_d_19_ez_11 pbc="T T T"
Ba       0.00000000       0.00000000       0.00000000       0.00000000       0.00000000       0.00000000
Ti       1.95000000       1.95000000       2.19666667       0.00000000       0.00000000      -0.15497211
O        1.95000000       1.95000000       0.00000000       0.00000000       0.00000000       0.00000000
O        1.95000000       0.00000000       2.05000000       0.00000000       0.00000000       0.00000000
O        0.00000000       1.95000000       2.05000000       0.00000000       0.00000000       0.00000000
5
Lattice="3.9 0.0 0.0 0.0 3.9 0.0 0.0 0.0 4.1" Properties=species:S:1:pos:R:3:REF_forces:R:3 REF_energy=-0.06195670172229842 REF_electric_field="0.0 0.0 0.08" REF_polarization="0.0 0.0 0.013641004260141233" REF_mode_displacement=0.1466666666666667 label_source="fixed-cell analytic Landau field-switching toy; not DFT or experiment" config_type=train_d_19_ez_12 pbc="T T T"
Ba       0.00000000       0.00000000       0.00000000       0.00000000       0.00000000       0.00000000
Ti       1.95000000       1.95000000       2.19666667       0.00000000       0.00000000      -0.03897211
O        1.95000000       1.95000000       0.00000000       0.00000000       0.00000000       0.00000000
O        1.95000000       0.00000000       2.05000000       0.00000000       0.00000000       0.00000000
O        0.00000000       1.95000000       2.05000000       0.00000000       0.00000000       0.00000000
5
Lattice="3.9 0.0 0.0 0.0 3.9 0.0 0.0 0.0 4.1" Properties=species:S:1:pos:R:3:REF_forces:R:3 REF_energy=-0.07897003505563176 REF_electric_field="0.0 0.0 0.1" REF_polarization="0.0 0.0 0.013641004260141233" REF_mode_displacement=0.1466666666666667 label_source="fixed-cell analytic Landau field-switching toy; not DFT or experiment" config_type=train_d_19_ez_13 pbc="T T T"
Ba       0.00000000       0.00000000       0.00000000       0.00000000       0.00000000       0.00000000
Ti       1.95000000       1.95000000       2.19666667       0.00000000       0.00000000       0.07702789
O        1.95000000       1.95000000       0.00000000       0.00000000       0.00000000       0.00000000
O        1.95000000       0.00000000       2.05000000       0.00000000       0.00000000       0.00000000
O        0.00000000       1.95000000       2.05000000       0.00000000       0.00000000       0.00000000
5
Lattice="3.9 0.0 0.0 0.0 3.9 0.0 0.0 0.0 4.1" Properties=species:S:1:pos:R:3:REF_forces:R:3 REF_energy=-0.0959833683889651 REF_electric_field="0.0 0.0 0.12" REF_polarization="0.0 0.0 0.013641004260141233" REF_mode_displacement=0.1466666666666667 label_source="fixed-cell analytic Landau field-switching toy; not DFT or experiment" config_type=train_d_19_ez_14 pbc="T T T"
Ba       0.00000000       0.00000000       0.00000000       0.00000000       0.00000000       0.00000000
Ti       1.95000000       1.95000000       2.19666667       0.00000000       0.00000000       0.19302789
O        1.95000000       1.95000000       0.00000000       0.00000000       0.00000000       0.00000000
O        1.95000000       0.00000000       2.05000000       0.00000000       0.00000000       0.00000000
O        0.00000000       1.95000000       2.05000000       0.00000000       0.00000000       0.00000000
5
Lattice="3.9 0.0 0.0 0.0 3.9 0.0 0.0 0.0 4.1" Properties=species:S:1:pos:R:3:REF_forces:R:3 REF_energy=0.14578423422825865 REF_electric_field="0.0 0.0 -0.12" REF_polarization="0.0 0.0 0.01591450497016477" REF_mode_displacement=0.17111111111111113 label_source="fixed-cell analytic Landau field-switching toy; not DFT or experiment" config_type=train_d_20_ez_0 pbc="T T T"
Ba       0.00000000       0.00000000       0.00000000       0.00000000       0.00000000       0.00000000
Ti       1.95000000       1.95000000       2.22111111       0.00000000       0.00000000      -1.92379916
O        1.95000000       1.95000000       0.00000000       0.00000000       0.00000000       0.00000000
O        1.95000000       0.00000000       2.05000000       0.00000000       0.00000000       0.00000000
O        0.00000000       1.95000000       2.05000000       0.00000000       0.00000000       0.00000000
5
Lattice="3.9 0.0 0.0 0.0 3.9 0.0 0.0 0.0 4.1" Properties=species:S:1:pos:R:3:REF_forces:R:3 REF_energy=0.1259353453393698 REF_electric_field="0.0 0.0 -0.1" REF_polarization="0.0 0.0 0.01591450497016477" REF_mode_displacement=0.17111111111111113 label_source="fixed-cell analytic Landau field-switching toy; not DFT or experiment" config_type=train_d_20_ez_1 pbc="T T T"
Ba       0.00000000       0.00000000       0.00000000       0.00000000       0.00000000       0.00000000
Ti       1.95000000       1.95000000       2.22111111       0.00000000       0.00000000      -1.80779916
O        1.95000000       1.95000000       0.00000000       0.00000000       0.00000000       0.00000000
O        1.95000000       0.00000000       2.05000000       0.00000000       0.00000000       0.00000000
O        0.00000000       1.95000000       2.05000000       0.00000000       0.00000000       0.00000000
5
Lattice="3.9 0.0 0.0 0.0 3.9 0.0 0.0 0.0 4.1" Properties=species:S:1:pos:R:3:REF_forces:R:3 REF_energy=0.10608645645048088 REF_electric_field="0.0 0.0 -0.08" REF_polarization="0.0 0.0 0.01591450497016477" REF_mode_displacement=0.17111111111111113 label_source="fixed-cell analytic Landau field-switching toy; not DFT or experiment" config_type=train_d_20_ez_2 pbc="T T T"
Ba       0.00000000       0.00000000       0.00000000       0.00000000       0.00000000       0.00000000
Ti       1.95000000       1.95000000       2.22111111       0.00000000       0.00000000      -1.69179916
O        1.95000000       1.95000000       0.00000000       0.00000000       0.00000000       0.00000000
O        1.95000000       0.00000000       2.05000000       0.00000000       0.00000000       0.00000000
O        0.00000000       1.95000000       2.05000000       0.00000000       0.00000000       0.00000000
5
Lattice="3.9 0.0 0.0 0.0 3.9 0.0 0.0 0.0 4.1" Properties=species:S:1:pos:R:3:REF_forces:R:3 REF_energy=0.08623756756159198 REF_electric_field="0.0 0.0 -0.06" REF_polarization="0.0 0.0 0.01591450497016477" REF_mode_displacement=0.17111111111111113 label_source="fixed-cell analytic Landau field-switching toy; not DFT or experiment" config_type=train_d_20_ez_3 pbc="T T T"
Ba       0.00000000       0.00000000       0.00000000       0.00000000       0.00000000       0.00000000
Ti       1.95000000       1.95000000       2.22111111       0.00000000       0.00000000      -1.57579916
O        1.95000000       1.95000000       0.00000000       0.00000000       0.00000000       0.00000000
O        1.95000000       0.00000000       2.05000000       0.00000000       0.00000000       0.00000000
O        0.00000000       1.95000000       2.05000000       0.00000000       0.00000000       0.00000000
5
Lattice="3.9 0.0 0.0 0.0 3.9 0.0 0.0 0.0 4.1" Properties=species:S:1:pos:R:3:REF_forces:R:3 REF_energy=0.07631312311714755 REF_electric_field="0.0 0.0 -0.05" REF_polarization="0.0 0.0 0.01591450497016477" REF_mode_displacement=0.17111111111111113 label_source="fixed-cell analytic Landau field-switching toy; not DFT or experiment" config_type=train_d_20_ez_4 pbc="T T T"
Ba       0.00000000       0.00000000       0.00000000       0.00000000       0.00000000       0.00000000
Ti       1.95000000       1.95000000       2.22111111       0.00000000       0.00000000      -1.51779916
O        1.95000000       1.95000000       0.00000000       0.00000000       0.00000000       0.00000000
O        1.95000000       0.00000000       2.05000000       0.00000000       0.00000000       0.00000000
O        0.00000000       1.95000000       2.05000000       0.00000000       0.00000000       0.00000000
5
Lattice="3.9 0.0 0.0 0.0 3.9 0.0 0.0 0.0 4.1" Properties=species:S:1:pos:R:3:REF_forces:R:3 REF_energy=0.0663886786727031 REF_electric_field="0.0 0.0 -0.04" REF_polarization="0.0 0.0 0.01591450497016477" REF_mode_displacement=0.17111111111111113 label_source="fixed-cell analytic Landau field-switching toy; not DFT or experiment" config_type=train_d_20_ez_5 pbc="T T T"
Ba       0.00000000       0.00000000       0.00000000       0.00000000       0.00000000       0.00000000
Ti       1.95000000       1.95000000       2.22111111       0.00000000       0.00000000      -1.45979916
O        1.95000000       1.95000000       0.00000000       0.00000000       0.00000000       0.00000000
O        1.95000000       0.00000000       2.05000000       0.00000000       0.00000000       0.00000000
O        0.00000000       1.95000000       2.05000000       0.00000000       0.00000000       0.00000000
5
Lattice="3.9 0.0 0.0 0.0 3.9 0.0 0.0 0.0 4.1" Properties=species:S:1:pos:R:3:REF_forces:R:3 REF_energy=0.046539789783814206 REF_electric_field="0.0 0.0 -0.02" REF_polarization="0.0 0.0 0.01591450497016477" REF_mode_displacement=0.17111111111111113 label_source="fixed-cell analytic Landau field-switching toy; not DFT or experiment" config_type=train_d_20_ez_6 pbc="T T T"
Ba       0.00000000       0.00000000       0.00000000       0.00000000       0.00000000       0.00000000
Ti       1.95000000       1.95000000       2.22111111       0.00000000       0.00000000      -1.34379916
O        1.95000000       1.95000000       0.00000000       0.00000000       0.00000000       0.00000000
O        1.95000000       0.00000000       2.05000000       0.00000000       0.00000000       0.00000000
O        0.00000000       1.95000000       2.05000000       0.00000000       0.00000000       0.00000000
5
Lattice="3.9 0.0 0.0 0.0 3.9 0.0 0.0 0.0 4.1" Properties=species:S:1:pos:R:3:REF_forces:R:3 REF_energy=0.026690900894925318 REF_electric_field="0.0 0.0 0.0" REF_polarization="0.0 0.0 0.01591450497016477" REF_mode_displacement=0.17111111111111113 label_source="fixed-cell analytic Landau field-switching toy; not DFT or experiment" config_type=train_d_20_ez_7 pbc="T T T"
Ba       0.00000000       0.00000000       0.00000000       0.00000000       0.00000000       0.00000000
Ti       1.95000000       1.95000000       2.22111111       0.00000000       0.00000000      -1.22779916
O        1.95000000       1.95000000       0.00000000       0.00000000       0.00000000       0.00000000
O        1.95000000       0.00000000       2.05000000       0.00000000       0.00000000       0.00000000
O        0.00000000       1.95000000       2.05000000       0.00000000       0.00000000       0.00000000
5
Lattice="3.9 0.0 0.0 0.0 3.9 0.0 0.0 0.0 4.1" Properties=species:S:1:pos:R:3:REF_forces:R:3 REF_energy=0.006842012006036426 REF_electric_field="0.0 0.0 0.02" REF_polarization="0.0 0.0 0.01591450497016477" REF_mode_displacement=0.17111111111111113 label_source="fixed-cell analytic Landau field-switching toy; not DFT or experiment" config_type=train_d_20_ez_8 pbc="T T T"
Ba       0.00000000       0.00000000       0.00000000       0.00000000       0.00000000       0.00000000
Ti       1.95000000       1.95000000       2.22111111       0.00000000       0.00000000      -1.11179916
O        1.95000000       1.95000000       0.00000000       0.00000000       0.00000000       0.00000000
O        1.95000000       0.00000000       2.05000000       0.00000000       0.00000000       0.00000000
O        0.00000000       1.95000000       2.05000000       0.00000000       0.00000000       0.00000000
5
Lattice="3.9 0.0 0.0 0.0 3.9 0.0 0.0 0.0 4.1" Properties=species:S:1:pos:R:3:REF_forces:R:3 REF_energy=-0.013006876882852465 REF_electric_field="0.0 0.0 0.04" REF_polarization="0.0 0.0 0.01591450497016477" REF_mode_displacement=0.17111111111111113 label_source="fixed-cell analytic Landau field-switching toy; not DFT or experiment" config_type=train_d_20_ez_9 pbc="T T T"
Ba       0.00000000       0.00000000       0.00000000       0.00000000       0.00000000       0.00000000
Ti       1.95000000       1.95000000       2.22111111       0.00000000       0.00000000      -0.99579916
O        1.95000000       1.95000000       0.00000000       0.00000000       0.00000000       0.00000000
O        1.95000000       0.00000000       2.05000000       0.00000000       0.00000000       0.00000000
O        0.00000000       1.95000000       2.05000000       0.00000000       0.00000000       0.00000000
5
Lattice="3.9 0.0 0.0 0.0 3.9 0.0 0.0 0.0 4.1" Properties=species:S:1:pos:R:3:REF_forces:R:3 REF_energy=-0.022931321327296916 REF_electric_field="0.0 0.0 0.05" REF_polarization="0.0 0.0 0.01591450497016477" REF_mode_displacement=0.17111111111111113 label_source="fixed-cell analytic Landau field-switching toy; not DFT or experiment" config_type=train_d_20_ez_10 pbc="T T T"
Ba       0.00000000       0.00000000       0.00000000       0.00000000       0.00000000       0.00000000
Ti       1.95000000       1.95000000       2.22111111       0.00000000       0.00000000      -0.93779916
O        1.95000000       1.95000000       0.00000000       0.00000000       0.00000000       0.00000000
O        1.95000000       0.00000000       2.05000000       0.00000000       0.00000000       0.00000000
O        0.00000000       1.95000000       2.05000000       0.00000000       0.00000000       0.00000000
5
Lattice="3.9 0.0 0.0 0.0 3.9 0.0 0.0 0.0 4.1" Properties=species:S:1:pos:R:3:REF_forces:R:3 REF_energy=-0.03285576577174135 REF_electric_field="0.0 0.0 0.06" REF_polarization="0.0 0.0 0.01591450497016477" REF_mode_displacement=0.17111111111111113 label_source="fixed-cell analytic Landau field-switching toy; not DFT or experiment" config_type=train_d_20_ez_11 pbc="T T T"
Ba       0.00000000       0.00000000       0.00000000       0.00000000       0.00000000       0.00000000
Ti       1.95000000       1.95000000       2.22111111       0.00000000       0.00000000      -0.87979916
O        1.95000000       1.95000000       0.00000000       0.00000000       0.00000000       0.00000000
O        1.95000000       0.00000000       2.05000000       0.00000000       0.00000000       0.00000000
O        0.00000000       1.95000000       2.05000000       0.00000000       0.00000000       0.00000000
5
Lattice="3.9 0.0 0.0 0.0 3.9 0.0 0.0 0.0 4.1" Properties=species:S:1:pos:R:3:REF_forces:R:3 REF_energy=-0.05270465466063025 REF_electric_field="0.0 0.0 0.08" REF_polarization="0.0 0.0 0.01591450497016477" REF_mode_displacement=0.17111111111111113 label_source="fixed-cell analytic Landau field-switching toy; not DFT or experiment" config_type=train_d_20_ez_12 pbc="T T T"
Ba       0.00000000       0.00000000       0.00000000       0.00000000       0.00000000       0.00000000
Ti       1.95000000       1.95000000       2.22111111       0.00000000       0.00000000      -0.76379916
O        1.95000000       1.95000000       0.00000000       0.00000000       0.00000000       0.00000000
O        1.95000000       0.00000000       2.05000000       0.00000000       0.00000000       0.00000000
O        0.00000000       1.95000000       2.05000000       0.00000000       0.00000000       0.00000000
5
Lattice="3.9 0.0 0.0 0.0 3.9 0.0 0.0 0.0 4.1" Properties=species:S:1:pos:R:3:REF_forces:R:3 REF_energy=-0.07255354354951915 REF_electric_field="0.0 0.0 0.1" REF_polarization="0.0 0.0 0.01591450497016477" REF_mode_displacement=0.17111111111111113 label_source="fixed-cell analytic Landau field-switching toy; not DFT or experiment" config_type=train_d_20_ez_13 pbc="T T T"
Ba       0.00000000       0.00000000       0.00000000       0.00000000       0.00000000       0.00000000
Ti       1.95000000       1.95000000       2.22111111       0.00000000       0.00000000      -0.64779916
O        1.95000000       1.95000000       0.00000000       0.00000000       0.00000000       0.00000000
O        1.95000000       0.00000000       2.05000000       0.00000000       0.00000000       0.00000000
O        0.00000000       1.95000000       2.05000000       0.00000000       0.00000000       0.00000000
5
Lattice="3.9 0.0 0.0 0.0 3.9 0.0 0.0 0.0 4.1" Properties=species:S:1:pos:R:3:REF_forces:R:3 REF_energy=-0.09240243243840802 REF_electric_field="0.0 0.0 0.12" REF_polarization="0.0 0.0 0.01591450497016477" REF_mode_displacement=0.17111111111111113 label_source="fixed-cell analytic Landau field-switching toy; not DFT or experiment" config_type=train_d_20_ez_14 pbc="T T T"
Ba       0.00000000       0.00000000       0.00000000       0.00000000       0.00000000       0.00000000
Ti       1.95000000       1.95000000       2.22111111       0.00000000       0.00000000      -0.53179916
O        1.95000000       1.95000000       0.00000000       0.00000000       0.00000000       0.00000000
O        1.95000000       0.00000000       2.05000000       0.00000000       0.00000000       0.00000000
O        0.00000000       1.95000000       2.05000000       0.00000000       0.00000000       0.00000000
5
Lattice="3.9 0.0 0.0 0.0 3.9 0.0 0.0 0.0 4.1" Properties=species:S:1:pos:R:3:REF_forces:R:3 REF_energy=0.204639627051733 REF_electric_field="0.0 0.0 -0.12" REF_polarization="0.0 0.0 0.01818800568018831" REF_mode_displacement=0.19555555555555557 label_source="fixed-cell analytic Landau field-switching toy; not DFT or experiment" config_type=train_d_21_ez_0 pbc="T T T"
Ba       0.00000000       0.00000000       0.00000000       0.00000000       0.00000000       0.00000000
Ti       1.95000000       1.95000000       2.24555556       0.00000000       0.00000000      -2.94447161
O        1.95000000       1.95000000       0.00000000       0.00000000       0.00000000       0.00000000
O        1.95000000       0.00000000       2.05000000       0.00000000       0.00000000       0.00000000
O        0.00000000       1.95000000       2.05000000       0.00000000       0.00000000       0.00000000
5
Lattice="3.9 0.0 0.0 0.0 3.9 0.0 0.0 0.0 4.1" Properties=species:S:1:pos:R:3:REF_forces:R:3 REF_energy=0.18195518260728855 REF_electric_field="0.0 0.0 -0.1" REF_polarization="0.0 0.0 0.01818800568018831" REF_mode_displacement=0.19555555555555557 label_source="fixed-cell analytic Landau field-switching toy; not DFT or experiment" config_type=train_d_21_ez_1 pbc="T T T"
Ba       0.00000000       0.00000000       0.00000000       0.00000000       0.00000000       0.00000000
Ti       1.95000000       1.95000000       2.24555556       0.00000000       0.00000000      -2.82847161
O        1.95000000       1.95000000       0.00000000       0.00000000       0.00000000       0.00000000
O        1.95000000       0.00000000       2.05000000       0.00000000       0.00000000       0.00000000
O        0.00000000       1.95000000       2.05000000       0.00000000       0.00000000       0.00000000
5
Lattice="3.9 0.0 0.0 0.0 3.9 0.0 0.0 0.0 4.1" Properties=species:S:1:pos:R:3:REF_forces:R:3 REF_energy=0.1592707381628441 REF_electric_field="0.0 0.0 -0.08" REF_polarization="0.0 0.0 0.01818800568018831" REF_mode_displacement=0.19555555555555557 label_source="fixed-cell analytic Landau field-switching toy; not DFT or experiment" config_type=train_d_21_ez_2 pbc="T T T"
Ba       0.00000000       0.00000000       0.00000000       0.00000000       0.00000000       0.00000000
Ti       1.95000000       1.95000000       2.24555556       0.00000000       0.00000000      -2.71247161
O        1.95000000       1.95000000       0.00000000       0.00000000       0.00000000       0.00000000
O        1.95000000       0.00000000       2.05000000       0.00000000       0.00000000       0.00000000
O        0.00000000       1.95000000       2.05000000       0.00000000       0.00000000       0.00000000
5
Lattice="3.9 0.0 0.0 0.0 3.9 0.0 0.0 0.0 4.1" Properties=species:S:1:pos:R:3:REF_forces:R:3 REF_energy=0.13658629371839964 REF_electric_field="0.0 0.0 -0.06" REF_polarization="0.0 0.0 0.01818800568018831" REF_mode_displacement=0.19555555555555557 label_source="fixed-cell analytic Landau field-switching toy; not DFT or experiment" config_type=train_d_21_ez_3 pbc="T T T"
Ba       0.00000000       0.00000000       0.00000000       0.00000000       0.00000000       0.00000000
Ti       1.95000000       1.95000000       2.24555556       0.00000000       0.00000000      -2.59647161
O        1.95000000       1.95000000       0.00000000       0.00000000       0.00000000       0.00000000
O        1.95000000       0.00000000       2.05000000       0.00000000       0.00000000       0.00000000
O        0.00000000       1.95000000       2.05000000       0.00000000       0.00000000       0.00000000
5
Lattice="3.9 0.0 0.0 0.0 3.9 0.0 0.0 0.0 4.1" Properties=species:S:1:pos:R:3:REF_forces:R:3 REF_energy=0.12524407149617744 REF_electric_field="0.0 0.0 -0.05" REF_polarization="0.0 0.0 0.01818800568018831" REF_mode_displacement=0.19555555555555557 label_source="fixed-cell analytic Landau field-switching toy; not DFT or experiment" config_type=train_d_21_ez_4 pbc="T T T"
Ba       0.00000000       0.00000000       0.00000000       0.00000000       0.00000000       0.00000000
Ti       1.95000000       1.95000000       2.24555556       0.00000000       0.00000000      -2.53847161
O        1.95000000       1.95000000       0.00000000       0.00000000       0.00000000       0.00000000
O        1.95000000       0.00000000       2.05000000       0.00000000       0.00000000       0.00000000
O        0.00000000       1.95000000       2.05000000       0.00000000       0.00000000       0.00000000
5
Lattice="3.9 0.0 0.0 0.0 3.9 0.0 0.0 0.0 4.1" Properties=species:S:1:pos:R:3:REF_forces:R:3 REF_energy=0.11390184927395522 REF_electric_field="0.0 0.0 -0.04" REF_polarization="0.0 0.0 0.01818800568018831" REF_mode_displacement=0.19555555555555557 label_source="fixed-cell analytic Landau field-switching toy; not DFT or experiment" config_type=train_d_21_ez_5 pbc="T T T"
Ba       0.00000000       0.00000000       0.00000000       0.00000000       0.00000000       0.00000000
Ti       1.95000000       1.95000000       2.24555556       0.00000000       0.00000000      -2.48047161
O        1.95000000       1.95000000       0.00000000       0.00000000       0.00000000       0.00000000
O        1.95000000       0.00000000       2.05000000       0.00000000       0.00000000       0.00000000
O        0.00000000       1.95000000       2.05000000       0.00000000       0.00000000       0.00000000
5
Lattice="3.9 0.0 0.0 0.0 3.9 0.0 0.0 0.0 4.1" Properties=species:S:1:pos:R:3:REF_forces:R:3 REF_energy=0.09121740482951077 REF_electric_field="0.0 0.0 -0.02" REF_polarization="0.0 0.0 0.01818800568018831" REF_mode_displacement=0.19555555555555557 label_source="fixed-cell analytic Landau field-switching toy; not DFT or experiment" config_type=train_d_21_ez_6 pbc="T T T"
Ba       0.00000000       0.00000000       0.00000000       0.00000000       0.00000000       0.00000000
Ti       1.95000000       1.95000000       2.24555556       0.00000000       0.00000000      -2.36447161
O        1.95000000       1.95000000       0.00000000       0.00000000       0.00000000       0.00000000
O        1.95000000       0.00000000       2.05000000       0.00000000       0.00000000       0.00000000
O        0.00000000       1.95000000       2.05000000       0.00000000       0.00000000       0.00000000
5
Lattice="3.9 0.0 0.0 0.0 3.9 0.0 0.0 0.0 4.1" Properties=species:S:1:pos:R:3:REF_forces:R:3 REF_energy=0.06853296038506633 REF_electric_field="0.0 0.0 0.0" REF_polarization="0.0 0.0 0.01818800568018831" REF_mode_displacement=0.19555555555555557 label_source="fixed-cell analytic Landau field-switching toy; not DFT or experiment" config_type=train_d_21_ez_7 pbc="T T T"
Ba       0.00000000       0.00000000       0.00000000       0.00000000       0.00000000       0.00000000
Ti       1.95000000       1.95000000       2.24555556       0.00000000       0.00000000      -2.24847161
O        1.95000000       1.95000000       0.00000000       0.00000000       0.00000000       0.00000000
O        1.95000000       0.00000000       2.05000000       0.00000000       0.00000000       0.00000000
O        0.00000000       1.95000000       2.05000000       0.00000000       0.00000000       0.00000000
5
Lattice="3.9 0.0 0.0 0.0 3.9 0.0 0.0 0.0 4.1" Properties=species:S:1:pos:R:3:REF_forces:R:3 REF_energy=0.045848515940621885 REF_electric_field="0.0 0.0 0.02" REF_polarization="0.0 0.0 0.01818800568018831" REF_mode_displacement=0.19555555555555557 label_source="fixed-cell analytic Landau field-switching toy; not DFT or experiment" config_type=train_d_21_ez_8 pbc="T T T"
Ba       0.00000000       0.00000000       0.00000000       0.00000000       0.00000000       0.00000000
Ti       1.95000000       1.95000000       2.24555556       0.00000000       0.00000000      -2.13247161
O        1.95000000       1.95000000       0.00000000       0.00000000       0.00000000       0.00000000
O        1.95000000       0.00000000       2.05000000       0.00000000       0.00000000       0.00000000
O        0.00000000       1.95000000       2.05000000       0.00000000       0.00000000       0.00000000
5
Lattice="3.9 0.0 0.0 0.0 3.9 0.0 0.0 0.0 4.1" Properties=species:S:1:pos:R:3:REF_forces:R:3 REF_energy=0.02316407149617744 REF_electric_field="0.0 0.0 0.04" REF_polarization="0.0 0.0 0.01818800568018831" REF_mode_displacement=0.19555555555555557 label_source="fixed-cell analytic Landau field-switching toy; not DFT or experiment" config_type=train_d_21_ez_9 pbc="T T T"
Ba       0.00000000       0.00000000       0.00000000       0.00000000       0.00000000       0.00000000
Ti       1.95000000       1.95000000       2.24555556       0.00000000       0.00000000      -2.01647161
O        1.95000000       1.95000000       0.00000000       0.00000000       0.00000000       0.00000000
O        1.95000000       0.00000000       2.05000000       0.00000000       0.00000000       0.00000000
O        0.00000000       1.95000000       2.05000000       0.00000000       0.00000000       0.00000000
5
Lattice="3.9 0.0 0.0 0.0 3.9 0.0 0.0 0.0 4.1" Properties=species:S:1:pos:R:3:REF_forces:R:3 REF_energy=0.011821849273955215 REF_electric_field="0.0 0.0 0.05" REF_polarization="0.0 0.0 0.01818800568018831" REF_mode_displacement=0.19555555555555557 label_source="fixed-cell analytic Landau field-switching toy; not DFT or experiment" config_type=train_d_21_ez_10 pbc="T T T"
Ba       0.00000000       0.00000000       0.00000000       0.00000000       0.00000000       0.00000000
Ti       1.95000000       1.95000000       2.24555556       0.00000000       0.00000000      -1.95847161
O        1.95000000       1.95000000       0.00000000       0.00000000       0.00000000       0.00000000
O        1.95000000       0.00000000       2.05000000       0.00000000       0.00000000       0.00000000
O        0.00000000       1.95000000       2.05000000       0.00000000       0.00000000       0.00000000
5
Lattice="3.9 0.0 0.0 0.0 3.9 0.0 0.0 0.0 4.1" Properties=species:S:1:pos:R:3:REF_forces:R:3 REF_energy=0.00047962705173300313 REF_electric_field="0.0 0.0 0.06" REF_polarization="0.0 0.0 0.01818800568018831" REF_mode_displacement=0.19555555555555557 label_source="fixed-cell analytic Landau field-switching toy; not DFT or experiment" config_type=train_d_21_ez_11 pbc="T T T"
Ba       0.00000000       0.00000000       0.00000000       0.00000000       0.00000000       0.00000000
Ti       1.95000000       1.95000000       2.24555556       0.00000000       0.00000000      -1.90047161
O        1.95000000       1.95000000       0.00000000       0.00000000       0.00000000       0.00000000
O        1.95000000       0.00000000       2.05000000       0.00000000       0.00000000       0.00000000
O        0.00000000       1.95000000       2.05000000       0.00000000       0.00000000       0.00000000
5
Lattice="3.9 0.0 0.0 0.0 3.9 0.0 0.0 0.0 4.1" Properties=species:S:1:pos:R:3:REF_forces:R:3 REF_energy=-0.02220481739271145 REF_electric_field="0.0 0.0 0.08" REF_polarization="0.0 0.0 0.01818800568018831" REF_mode_displacement=0.19555555555555557 label_source="fixed-cell analytic Landau field-switching toy; not DFT or experiment" config_type=train_d_21_ez_12 pbc="T T T"
Ba       0.00000000       0.00000000       0.00000000       0.00000000       0.00000000       0.00000000
Ti       1.95000000       1.95000000       2.24555556       0.00000000       0.00000000      -1.78447161
O        1.95000000       1.95000000       0.00000000       0.00000000       0.00000000       0.00000000
O        1.95000000       0.00000000       2.05000000       0.00000000       0.00000000       0.00000000
O        0.00000000       1.95000000       2.05000000       0.00000000       0.00000000       0.00000000
5
Lattice="3.9 0.0 0.0 0.0 3.9 0.0 0.0 0.0 4.1" Properties=species:S:1:pos:R:3:REF_forces:R:3 REF_energy=-0.0448892618371559 REF_electric_field="0.0 0.0 0.1" REF_polarization="0.0 0.0 0.01818800568018831" REF_mode_displacement=0.19555555555555557 label_source="fixed-cell analytic Landau field-switching toy; not DFT or experiment" config_type=train_d_21_ez_13 pbc="T T T"
Ba       0.00000000       0.00000000       0.00000000       0.00000000       0.00000000       0.00000000
Ti       1.95000000       1.95000000       2.24555556       0.00000000       0.00000000      -1.66847161
O        1.95000000       1.95000000       0.00000000       0.00000000       0.00000000       0.00000000
O        1.95000000       0.00000000       2.05000000       0.00000000       0.00000000       0.00000000
O        0.00000000       1.95000000       2.05000000       0.00000000       0.00000000       0.00000000
5
Lattice="3.9 0.0 0.0 0.0 3.9 0.0 0.0 0.0 4.1" Properties=species:S:1:pos:R:3:REF_forces:R:3 REF_energy=-0.06757370628160032 REF_electric_field="0.0 0.0 0.12" REF_polarization="0.0 0.0 0.01818800568018831" REF_mode_displacement=0.19555555555555557 label_source="fixed-cell analytic Landau field-switching toy; not DFT or experiment" config_type=train_d_21_ez_14 pbc="T T T"
Ba       0.00000000       0.00000000       0.00000000       0.00000000       0.00000000       0.00000000
Ti       1.95000000       1.95000000       2.24555556       0.00000000       0.00000000      -1.55247161
O        1.95000000       1.95000000       0.00000000       0.00000000       0.00000000       0.00000000
O        1.95000000       0.00000000       2.05000000       0.00000000       0.00000000       0.00000000
O        0.00000000       1.95000000       2.05000000       0.00000000       0.00000000       0.00000000
5
Lattice="3.9 0.0 0.0 0.0 3.9 0.0 0.0 0.0 4.1" Properties=species:S:1:pos:R:3:REF_forces:R:3 REF_energy=0.29249114197530873 REF_electric_field="0.0 0.0 -0.12" REF_polarization="0.0 0.0 0.020461506390211846" REF_mode_displacement=0.22 label_source="fixed-cell analytic Landau field-switching toy; not DFT or experiment" config_type=train_d_22_ez_0 pbc="T T T"
Ba       0.00000000       0.00000000       0.00000000       0.00000000       0.00000000       0.00000000
Ti       1.95000000       1.95000000       2.27000000       0.00000000       0.00000000      -4.30325309
O        1.95000000       1.95000000       0.00000000       0.00000000       0.00000000       0.00000000
O        1.95000000       0.00000000       2.05000000       0.00000000       0.00000000       0.00000000
O        0.00000000       1.95000000       2.05000000       0.00000000       0.00000000       0.00000000
5
Lattice="3.9 0.0 0.0 0.0 3.9 0.0 0.0 0.0 4.1" Properties=species:S:1:pos:R:3:REF_forces:R:3 REF_energy=0.26697114197530875 REF_electric_field="0.0 0.0 -0.1" REF_polarization="0.0 0.0 0.020461506390211846" REF_mode_displacement=0.22 label_source="fixed-cell analytic Landau field-switching toy; not DFT or experiment" config_type=train_d_22_ez_1 pbc="T T T"
Ba       0.00000000       0.00000000       0.00000000       0.00000000       0.00000000       0.00000000
Ti       1.95000000       1.95000000       2.27000000       0.00000000       0.00000000      -4.18725309
O        1.95000000       1.95000000       0.00000000       0.00000000       0.00000000       0.00000000
O        1.95000000       0.00000000       2.05000000       0.00000000       0.00000000       0.00000000
O        0.00000000       1.95000000       2.05000000       0.00000000       0.00000000       0.00000000
5
Lattice="3.9 0.0 0.0 0.0 3.9 0.0 0.0 0.0 4.1" Properties=species:S:1:pos:R:3:REF_forces:R:3 REF_energy=0.24145114197530873 REF_electric_field="0.0 0.0 -0.08" REF_polarization="0.0 0.0 0.020461506390211846" REF_mode_displacement=0.22 label_source="fixed-cell analytic Landau field-switching toy; not DFT or experiment" config_type=train_d_22_ez_2 pbc="T T T"
Ba       0.00000000       0.00000000       0.00000000       0.00000000       0.00000000       0.00000000
Ti       1.95000000       1.95000000       2.27000000       0.00000000       0.00000000      -4.07125309
O        1.95000000       1.95000000       0.00000000       0.00000000       0.00000000       0.00000000
O        1.95000000       0.00000000       2.05000000       0.00000000       0.00000000       0.00000000
O        0.00000000       1.95000000       2.05000000       0.00000000       0.00000000       0.00000000
5
Lattice="3.9 0.0 0.0 0.0 3.9 0.0 0.0 0.0 4.1" Properties=species:S:1:pos:R:3:REF_forces:R:3 REF_energy=0.21593114197530872 REF_electric_field="0.0 0.0 -0.06" REF_polarization="0.0 0.0 0.020461506390211846" REF_mode_displacement=0.22 label_source="fixed-cell analytic Landau field-switching toy; not DFT or experiment" config_type=train_d_22_ez_3 pbc="T T T"
Ba       0.00000000       0.00000000       0.00000000       0.00000000       0.00000000       0.00000000
Ti       1.95000000       1.95000000       2.27000000       0.00000000       0.00000000      -3.95525309
O        1.95000000       1.95000000       0.00000000       0.00000000       0.00000000       0.00000000
O        1.95000000       0.00000000       2.05000000       0.00000000       0.00000000       0.00000000
O        0.00000000       1.95000000       2.05000000       0.00000000       0.00000000       0.00000000
5
Lattice="3.9 0.0 0.0 0.0 3.9 0.0 0.0 0.0 4.1" Properties=species:S:1:pos:R:3:REF_forces:R:3 REF_energy=0.20317114197530872 REF_electric_field="0.0 0.0 -0.05" REF_polarization="0.0 0.0 0.020461506390211846" REF_mode_displacement=0.22 label_source="fixed-cell analytic Landau field-switching toy; not DFT or experiment" config_type=train_d_22_ez_4 pbc="T T T"
Ba       0.00000000       0.00000000       0.00000000       0.00000000       0.00000000       0.00000000
Ti       1.95000000       1.95000000       2.27000000       0.00000000       0.00000000      -3.89725309
O        1.95000000       1.95000000       0.00000000       0.00000000       0.00000000       0.00000000
O        1.95000000       0.00000000       2.05000000       0.00000000       0.00000000       0.00000000
O        0.00000000       1.95000000       2.05000000       0.00000000       0.00000000       0.00000000
5
Lattice="3.9 0.0 0.0 0.0 3.9 0.0 0.0 0.0 4.1" Properties=species:S:1:pos:R:3:REF_forces:R:3 REF_energy=0.19041114197530873 REF_electric_field="0.0 0.0 -0.04" REF_polarization="0.0 0.0 0.020461506390211846" REF_mode_displacement=0.22 label_source="fixed-cell analytic Landau field-switching toy; not DFT or experiment" config_type=train_d_22_ez_5 pbc="T T T"
Ba       0.00000000       0.00000000       0.00000000       0.00000000       0.00000000       0.00000000
Ti       1.95000000       1.95000000       2.27000000       0.00000000       0.00000000      -3.83925309
O        1.95000000       1.95000000       0.00000000       0.00000000       0.00000000       0.00000000
O        1.95000000       0.00000000       2.05000000       0.00000000       0.00000000       0.00000000
O        0.00000000       1.95000000       2.05000000       0.00000000       0.00000000       0.00000000
5
Lattice="3.9 0.0 0.0 0.0 3.9 0.0 0.0 0.0 4.1" Properties=species:S:1:pos:R:3:REF_forces:R:3 REF_energy=0.16489114197530874 REF_electric_field="0.0 0.0 -0.02" REF_polarization="0.0 0.0 0.020461506390211846" REF_mode_displacement=0.22 label_source="fixed-cell analytic Landau field-switching toy; not DFT or experiment" config_type=train_d_22_ez_6 pbc="T T T"
Ba       0.00000000       0.00000000       0.00000000       0.00000000       0.00000000       0.00000000
Ti       1.95000000       1.95000000       2.27000000       0.00000000       0.00000000      -3.72325309
O        1.95000000       1.95000000       0.00000000       0.00000000       0.00000000       0.00000000
O        1.95000000       0.00000000       2.05000000       0.00000000       0.00000000       0.00000000
O        0.00000000       1.95000000       2.05000000       0.00000000       0.00000000       0.00000000
5
Lattice="3.9 0.0 0.0 0.0 3.9 0.0 0.0 0.0 4.1" Properties=species:S:1:pos:R:3:REF_forces:R:3 REF_energy=0.13937114197530873 REF_electric_field="0.0 0.0 0.0" REF_polarization="0.0 0.0 0.020461506390211846" REF_mode_displacement=0.22 label_source="fixed-cell analytic Landau field-switching toy; not DFT or experiment" config_type=train_d_22_ez_7 pbc="T T T"
Ba       0.00000000       0.00000000       0.00000000       0.00000000       0.00000000       0.00000000
Ti       1.95000000       1.95000000       2.27000000       0.00000000       0.00000000      -3.60725309
O        1.95000000       1.95000000       0.00000000       0.00000000       0.00000000       0.00000000
O        1.95000000       0.00000000       2.05000000       0.00000000       0.00000000       0.00000000
O        0.00000000       1.95000000       2.05000000       0.00000000       0.00000000       0.00000000
5
Lattice="3.9 0.0 0.0 0.0 3.9 0.0 0.0 0.0 4.1" Properties=species:S:1:pos:R:3:REF_forces:R:3 REF_energy=0.11385114197530873 REF_electric_field="0.0 0.0 0.02" REF_polarization="0.0 0.0 0.020461506390211846" REF_mode_displacement=0.22 label_source="fixed-cell analytic Landau field-switching toy; not DFT or experiment" config_type=train_d_22_ez_8 pbc="T T T"
Ba       0.00000000       0.00000000       0.00000000       0.00000000       0.00000000       0.00000000
Ti       1.95000000       1.95000000       2.27000000       0.00000000       0.00000000      -3.49125309
O        1.95000000       1.95000000       0.00000000       0.00000000       0.00000000       0.00000000
O        1.95000000       0.00000000       2.05000000       0.00000000       0.00000000       0.00000000
O        0.00000000       1.95000000       2.05000000       0.00000000       0.00000000       0.00000000
5
Lattice="3.9 0.0 0.0 0.0 3.9 0.0 0.0 0.0 4.1" Properties=species:S:1:pos:R:3:REF_forces:R:3 REF_energy=0.08833114197530872 REF_electric_field="0.0 0.0 0.04" REF_polarization="0.0 0.0 0.020461506390211846" REF_mode_displacement=0.22 label_source="fixed-cell analytic Landau field-switching toy; not DFT or experiment" config_type=train_d_22_ez_9 pbc="T T T"
Ba       0.00000000       0.00000000       0.00000000       0.00000000       0.00000000       0.00000000
Ti       1.95000000       1.95000000       2.27000000       0.00000000       0.00000000      -3.37525309
O        1.95000000       1.95000000       0.00000000       0.00000000       0.00000000       0.00000000
O        1.95000000       0.00000000       2.05000000       0.00000000       0.00000000       0.00000000
O        0.00000000       1.95000000       2.05000000       0.00000000       0.00000000       0.00000000
5
Lattice="3.9 0.0 0.0 0.0 3.9 0.0 0.0 0.0 4.1" Properties=species:S:1:pos:R:3:REF_forces:R:3 REF_energy=0.07557114197530872 REF_electric_field="0.0 0.0 0.05" REF_polarization="0.0 0.0 0.020461506390211846" REF_mode_displacement=0.22 label_source="fixed-cell analytic Landau field-switching toy; not DFT or experiment" config_type=train_d_22_ez_10 pbc="T T T"
Ba       0.00000000       0.00000000       0.00000000       0.00000000       0.00000000       0.00000000
Ti       1.95000000       1.95000000       2.27000000       0.00000000       0.00000000      -3.31725309
O        1.95000000       1.95000000       0.00000000       0.00000000       0.00000000       0.00000000
O        1.95000000       0.00000000       2.05000000       0.00000000       0.00000000       0.00000000
O        0.00000000       1.95000000       2.05000000       0.00000000       0.00000000       0.00000000
5
Lattice="3.9 0.0 0.0 0.0 3.9 0.0 0.0 0.0 4.1" Properties=species:S:1:pos:R:3:REF_forces:R:3 REF_energy=0.06281114197530872 REF_electric_field="0.0 0.0 0.06" REF_polarization="0.0 0.0 0.020461506390211846" REF_mode_displacement=0.22 label_source="fixed-cell analytic Landau field-switching toy; not DFT or experiment" config_type=train_d_22_ez_11 pbc="T T T"
Ba       0.00000000       0.00000000       0.00000000       0.00000000       0.00000000       0.00000000
Ti       1.95000000       1.95000000       2.27000000       0.00000000       0.00000000      -3.25925309
O        1.95000000       1.95000000       0.00000000       0.00000000       0.00000000       0.00000000
O        1.95000000       0.00000000       2.05000000       0.00000000       0.00000000       0.00000000
O        0.00000000       1.95000000       2.05000000       0.00000000       0.00000000       0.00000000
5
Lattice="3.9 0.0 0.0 0.0 3.9 0.0 0.0 0.0 4.1" Properties=species:S:1:pos:R:3:REF_forces:R:3 REF_energy=0.03729114197530872 REF_electric_field="0.0 0.0 0.08" REF_polarization="0.0 0.0 0.020461506390211846" REF_mode_displacement=0.22 label_source="fixed-cell analytic Landau field-switching toy; not DFT or experiment" config_type=train_d_22_ez_12 pbc="T T T"
Ba       0.00000000       0.00000000       0.00000000       0.00000000       0.00000000       0.00000000
Ti       1.95000000       1.95000000       2.27000000       0.00000000       0.00000000      -3.14325309
O        1.95000000       1.95000000       0.00000000       0.00000000       0.00000000       0.00000000
O        1.95000000       0.00000000       2.05000000       0.00000000       0.00000000       0.00000000
O        0.00000000       1.95000000       2.05000000       0.00000000       0.00000000       0.00000000
5
Lattice="3.9 0.0 0.0 0.0 3.9 0.0 0.0 0.0 4.1" Properties=species:S:1:pos:R:3:REF_forces:R:3 REF_energy=0.011771141975308708 REF_electric_field="0.0 0.0 0.1" REF_polarization="0.0 0.0 0.020461506390211846" REF_mode_displacement=0.22 label_source="fixed-cell analytic Landau field-switching toy; not DFT or experiment" config_type=train_d_22_ez_13 pbc="T T T"
Ba       0.00000000       0.00000000       0.00000000       0.00000000       0.00000000       0.00000000
Ti       1.95000000       1.95000000       2.27000000       0.00000000       0.00000000      -3.02725309
O        1.95000000       1.95000000       0.00000000       0.00000000       0.00000000       0.00000000
O        1.95000000       0.00000000       2.05000000       0.00000000       0.00000000       0.00000000
O        0.00000000       1.95000000       2.05000000       0.00000000       0.00000000       0.00000000
5
Lattice="3.9 0.0 0.0 0.0 3.9 0.0 0.0 0.0 4.1" Properties=species:S:1:pos:R:3:REF_forces:R:3 REF_energy=-0.01374885802469128 REF_electric_field="0.0 0.0 0.12" REF_polarization="0.0 0.0 0.020461506390211846" REF_mode_displacement=0.22 label_source="fixed-cell analytic Landau field-switching toy; not DFT or experiment" config_type=train_d_22_ez_14 pbc="T T T"
Ba       0.00000000       0.00000000       0.00000000       0.00000000       0.00000000       0.00000000
Ti       1.95000000       1.95000000       2.27000000       0.00000000       0.00000000      -2.91125309
O        1.95000000       1.95000000       0.00000000       0.00000000       0.00000000       0.00000000
O        1.95000000       0.00000000       2.05000000       0.00000000       0.00000000       0.00000000
O        0.00000000       1.95000000       2.05000000       0.00000000       0.00000000       0.00000000
