2
Properties=species:S:1:pos:R:3:REF_forces:R:3:REF_magmom:R:3:REF_magforces:R:3 REF_energy=0.8797275679784687 label_source="analytic Fe2 pair potential; eV and mu_B" config_type=r_0_spin_0 pbc="F F F"
Fe       0.00000000       0.00000000       0.00000000      -2.31905274      -0.00000000      -0.00000000       1.50000000       0.00000000       0.00000000       0.05321503      -0.00000000      -0.00000000
Fe       2.25000000       0.00000000       0.00000000       2.31905274       0.00000000       0.00000000      -1.50000000       0.00000000       0.00000000      -0.05321503      -0.00000000      -0.00000000
2
Properties=species:S:1:pos:R:3:REF_forces:R:3:REF_magmom:R:3:REF_magforces:R:3 REF_energy=0.8412944885374013 label_source="analytic Fe2 pair potential; eV and mu_B" config_type=r_0_spin_1 pbc="F F F"
Fe       0.00000000       0.00000000       0.00000000      -2.28061966      -0.00000000      -0.00000000       2.00000000       0.00000000       0.00000000       0.05912781      -0.06610691      -0.00000000
Fe       2.25000000       0.00000000       0.00000000       2.28061966       0.00000000       0.00000000      -1.66666667       1.86338998       0.00000000      -0.07095338      -0.00000000      -0.00000000
2
Properties=species:S:1:pos:R:3:REF_forces:R:3:REF_magmom:R:3:REF_magforces:R:3 REF_energy=0.8885967401571766 label_source="analytic Fe2 pair potential; eV and mu_B" config_type=r_0_spin_2 pbc="F F F"
Fe       0.00000000       0.00000000       0.00000000      -2.32792192      -0.00000000      -0.00000000       3.00000000       0.00000000       0.00000000       0.02365113      -0.06689549      -0.00000000
Fe       2.25000000       0.00000000       0.00000000       2.32792192       0.00000000       0.00000000      -0.66666667       1.88561808       0.00000000      -0.10643007      -0.00000000      -0.00000000
2
Properties=species:S:1:pos:R:3:REF_forces:R:3:REF_magmom:R:3:REF_magforces:R:3 REF_energy=0.9595501175868395 label_source="analytic Fe2 pair potential; eV and mu_B" config_type=r_0_spin_3 pbc="F F F"
Fe       0.00000000       0.00000000       0.00000000      -2.39887529      -0.00000000      -0.00000000       1.50000000       0.00000000       0.00000000      -0.00000000      -0.05321503      -0.00000000
Fe       2.25000000       0.00000000       0.00000000       2.39887529       0.00000000       0.00000000       0.00000000       1.50000000       0.00000000      -0.05321503      -0.00000000      -0.00000000
2
Properties=species:S:1:pos:R:3:REF_forces:R:3:REF_magmom:R:3:REF_magforces:R:3 REF_energy=1.0186779321115587 label_source="analytic Fe2 pair potential; eV and mu_B" config_type=r_0_spin_4 pbc="F F F"
Fe       0.00000000       0.00000000       0.00000000      -2.45800311      -0.00000000      -0.00000000       2.00000000       0.00000000       0.00000000      -0.02956391      -0.08361936      -0.00000000
Fe       2.25000000       0.00000000       0.00000000       2.45800311       0.00000000       0.00000000       0.83333333       2.35702260       0.00000000      -0.07095338      -0.00000000      -0.00000000
2
Properties=species:S:1:pos:R:3:REF_forces:R:3:REF_magmom:R:3:REF_magforces:R:3 REF_energy=1.1014568724461653 label_source="analytic Fe2 pair potential; eV and mu_B" config_type=r_0_spin_5 pbc="F F F"
Fe       0.00000000       0.00000000       0.00000000      -2.54078205      -0.00000000      -0.00000000       3.00000000       0.00000000       0.00000000      -0.04730225      -0.05288553      -0.00000000
Fe       2.25000000       0.00000000       0.00000000       2.54078205       0.00000000       0.00000000       1.33333333       1.49071198       0.00000000      -0.10643007      -0.00000000      -0.00000000
2
Properties=species:S:1:pos:R:3:REF_forces:R:3:REF_magmom:R:3:REF_magforces:R:3 REF_energy=1.0393726671952102 label_source="analytic Fe2 pair potential; eV and mu_B" config_type=r_0_spin_6 pbc="F F F"
Fe       0.00000000       0.00000000       0.00000000      -2.47869784      -0.00000000      -0.00000000       1.50000000       0.00000000       0.00000000      -0.05321503      -0.00000000      -0.00000000
Fe       2.25000000       0.00000000       0.00000000       2.47869784       0.00000000       0.00000000       1.50000000       0.00000000       0.00000000      -0.05321503      -0.00000000      -0.00000000
2
Properties=species:S:1:pos:R:3:REF_forces:R:3:REF_magmom:R:3:REF_magforces:R:3 REF_energy=0.5504975952560369 label_source="analytic Fe2 pair potential; eV and mu_B" config_type=r_1_spin_0 pbc="F F F"
Fe       0.00000000       0.00000000       0.00000000      -1.61178943      -0.00000000      -0.00000000       2.00000000       0.00000000       0.00000000       0.07851515      -0.00000000      -0.00000000
Fe       2.37187500       0.00000000       0.00000000       1.61178943       0.00000000       0.00000000      -2.50000000       0.00000000       0.00000000      -0.06281212      -0.00000000      -0.00000000
2
Properties=species:S:1:pos:R:3:REF_forces:R:3:REF_magmom:R:3:REF_magforces:R:3 REF_energy=0.5819036539038269 label_source="analytic Fe2 pair potential; eV and mu_B" config_type=r_1_spin_1 pbc="F F F"
Fe       0.00000000       0.00000000       0.00000000      -1.64319549      -0.00000000      -0.00000000       3.00000000       0.00000000       0.00000000       0.04187474      -0.04681739      -0.00000000
Fe       2.37187500       0.00000000       0.00000000       1.64319549       0.00000000       0.00000000      -1.33333333       1.49071198       0.00000000      -0.09421818      -0.00000000      -0.00000000
2
Properties=species:S:1:pos:R:3:REF_forces:R:3:REF_magmom:R:3:REF_magforces:R:3 REF_energy=0.6839733445091444 label_source="analytic Fe2 pair potential; eV and mu_B" config_type=r_1_spin_2 pbc="F F F"
Fe       0.00000000       0.00000000       0.00000000      -1.74526518      -0.00000000      -0.00000000       1.50000000       0.00000000       0.00000000       0.01570303      -0.04441487      -0.00000000
Fe       2.37187500       0.00000000       0.00000000       1.74526518       0.00000000       0.00000000      -0.50000000       1.41421356       0.00000000      -0.04710909      -0.00000000      -0.00000000
2
Properties=species:S:1:pos:R:3:REF_forces:R:3:REF_magmom:R:3:REF_magforces:R:3 REF_energy=0.7075278884949868 label_source="analytic Fe2 pair potential; eV and mu_B" config_type=r_1_spin_3 pbc="F F F"
Fe       0.00000000       0.00000000       0.00000000      -1.76881972      -0.00000000      -0.00000000       2.00000000       0.00000000       0.00000000      -0.00000000      -0.07851515      -0.00000000
Fe       2.37187500       0.00000000       0.00000000       1.76881972       0.00000000       0.00000000       0.00000000       2.50000000       0.00000000      -0.06281212      -0.00000000      -0.00000000
2
Properties=species:S:1:pos:R:3:REF_forces:R:3:REF_magmom:R:3:REF_magforces:R:3 REF_energy=0.7703400057905667 label_source="analytic Fe2 pair potential; eV and mu_B" config_type=r_1_spin_4 pbc="F F F"
Fe       0.00000000       0.00000000       0.00000000      -1.83163184      -0.00000000      -0.00000000       3.00000000       0.00000000       0.00000000      -0.02093737      -0.05921983      -0.00000000
Fe       2.37187500       0.00000000       0.00000000       1.83163184       0.00000000       0.00000000       0.66666667       1.88561808       0.00000000      -0.09421818      -0.00000000      -0.00000000
2
Properties=species:S:1:pos:R:3:REF_forces:R:3:REF_magmom:R:3:REF_magforces:R:3 REF_energy=0.7546369764666717 label_source="analytic Fe2 pair potential; eV and mu_B" config_type=r_1_spin_5 pbc="F F F"
Fe       0.00000000       0.00000000       0.00000000      -1.81592881      -0.00000000      -0.00000000       1.50000000       0.00000000       0.00000000      -0.03140606      -0.03511304      -0.00000000
Fe       2.37187500       0.00000000       0.00000000       1.81592881       0.00000000       0.00000000       1.00000000       1.11803399       0.00000000      -0.04710909      -0.00000000      -0.00000000
2
Properties=species:S:1:pos:R:3:REF_forces:R:3:REF_magmom:R:3:REF_magforces:R:3 REF_energy=0.8645581817339367 label_source="analytic Fe2 pair potential; eV and mu_B" config_type=r_1_spin_6 pbc="F F F"
Fe       0.00000000       0.00000000       0.00000000      -1.92585001      -0.00000000      -0.00000000       2.00000000       0.00000000       0.00000000      -0.07851515      -0.00000000      -0.00000000
Fe       2.37187500       0.00000000       0.00000000       1.92585001       0.00000000       0.00000000       2.50000000       0.00000000       0.00000000      -0.06281212      -0.00000000      -0.00000000
2
Properties=species:S:1:pos:R:3:REF_forces:R:3:REF_magmom:R:3:REF_magforces:R:3 REF_energy=0.35488336989860736 label_source="analytic Fe2 pair potential; eV and mu_B" config_type=r_2_spin_0 pbc="F F F"
Fe       0.00000000       0.00000000       0.00000000      -1.13743089      -0.00000000      -0.00000000       3.00000000       0.00000000       0.00000000       0.05560499      -0.00000000      -0.00000000
Fe       2.49375000       0.00000000       0.00000000       1.13743089       0.00000000       0.00000000      -2.00000000       0.00000000       0.00000000      -0.08340749      -0.00000000      -0.00000000
2
Properties=species:S:1:pos:R:3:REF_forces:R:3:REF_magmom:R:3:REF_magforces:R:3 REF_energy=0.47999460490494344 label_source="analytic Fe2 pair potential; eV and mu_B" config_type=r_2_spin_1 pbc="F F F"
Fe       0.00000000       0.00000000       0.00000000      -1.26254213      -0.00000000      -0.00000000       1.50000000       0.00000000       0.00000000       0.02780250      -0.03108414      -0.00000000
Fe       2.49375000       0.00000000       0.00000000       1.26254213       0.00000000       0.00000000      -1.00000000       1.11803399       0.00000000      -0.04170375      -0.00000000      -0.00000000
2
Properties=species:S:1:pos:R:3:REF_forces:R:3:REF_magmom:R:3:REF_magforces:R:3 REF_energy=0.4753608554602643 label_source="analytic Fe2 pair potential; eV and mu_B" config_type=r_2_spin_2 pbc="F F F"
Fe       0.00000000       0.00000000       0.00000000      -1.25790838      -0.00000000      -0.00000000       2.00000000       0.00000000       0.00000000       0.02316875      -0.06553111      -0.00000000
Fe       2.49375000       0.00000000       0.00000000       1.25790838       0.00000000       0.00000000      -0.83333333       2.35702260       0.00000000      -0.05560499      -0.00000000      -0.00000000
2
Properties=species:S:1:pos:R:3:REF_forces:R:3:REF_magmom:R:3:REF_magforces:R:3 REF_energy=0.5216983499070554 label_source="analytic Fe2 pair potential; eV and mu_B" config_type=r_2_spin_3 pbc="F F F"
Fe       0.00000000       0.00000000       0.00000000      -1.30424587      -0.00000000      -0.00000000       3.00000000       0.00000000       0.00000000      -0.00000000      -0.05560499      -0.00000000
Fe       2.49375000       0.00000000       0.00000000       1.30424587       0.00000000       0.00000000       0.00000000       2.00000000       0.00000000      -0.08340749      -0.00000000      -0.00000000
2
Properties=species:S:1:pos:R:3:REF_forces:R:3:REF_magmom:R:3:REF_magforces:R:3 REF_energy=0.5425502224081115 label_source="analytic Fe2 pair potential; eV and mu_B" config_type=r_2_spin_4 pbc="F F F"
Fe       0.00000000       0.00000000       0.00000000      -1.32509775      -0.00000000      -0.00000000       1.50000000       0.00000000       0.00000000      -0.01390125      -0.03931867      -0.00000000
Fe       2.49375000       0.00000000       0.00000000       1.32509775       0.00000000       0.00000000       0.50000000       1.41421356       0.00000000      -0.04170375      -0.00000000      -0.00000000
2
Properties=species:S:1:pos:R:3:REF_forces:R:3:REF_magmom:R:3:REF_magforces:R:3 REF_energy=0.6143733388006377 label_source="analytic Fe2 pair potential; eV and mu_B" config_type=r_2_spin_5 pbc="F F F"
Fe       0.00000000       0.00000000       0.00000000      -1.39692086      -0.00000000      -0.00000000       2.00000000       0.00000000       0.00000000      -0.04633749      -0.05180689      -0.00000000
Fe       2.49375000       0.00000000       0.00000000       1.39692086       0.00000000       0.00000000       1.66666667       1.86338998       0.00000000      -0.05560499      -0.00000000      -0.00000000
2
Properties=species:S:1:pos:R:3:REF_forces:R:3:REF_magmom:R:3:REF_magforces:R:3 REF_energy=0.6885133299155035 label_source="analytic Fe2 pair potential; eV and mu_B" config_type=r_2_spin_6 pbc="F F F"
Fe       0.00000000       0.00000000       0.00000000      -1.47106085      -0.00000000      -0.00000000       3.00000000       0.00000000       0.00000000      -0.05560499      -0.00000000      -0.00000000
Fe       2.49375000       0.00000000       0.00000000       1.47106085       0.00000000       0.00000000       2.00000000       0.00000000       0.00000000      -0.08340749      -0.00000000      -0.00000000
2
Properties=species:S:1:pos:R:3:REF_forces:R:3:REF_magmom:R:3:REF_magforces:R:3 REF_energy=0.32929831606061594 label_source="analytic Fe2 pair potential; eV and mu_B" config_type=r_3_spin_0 pbc="F F F"
Fe       0.00000000       0.00000000       0.00000000      -0.90631268      -0.00000000      -0.00000000       1.50000000       0.00000000       0.00000000       0.03691862      -0.00000000      -0.00000000
Fe       2.61562500       0.00000000       0.00000000       0.90631268       0.00000000       0.00000000      -1.50000000       0.00000000       0.00000000      -0.03691862      -0.00000000      -0.00000000
2
Properties=species:S:1:pos:R:3:REF_forces:R:3:REF_magmom:R:3:REF_magforces:R:3 REF_energy=0.3026348708917194 label_source="analytic Fe2 pair potential; eV and mu_B" config_type=r_3_spin_1 pbc="F F F"
Fe       0.00000000       0.00000000       0.00000000      -0.87964923      -0.00000000      -0.00000000       2.00000000       0.00000000       0.00000000       0.04102068      -0.04586252      -0.00000000
Fe       2.61562500       0.00000000       0.00000000       0.87964923       0.00000000       0.00000000      -1.66666667       1.86338998       0.00000000      -0.04922482      -0.00000000      -0.00000000
2
Properties=species:S:1:pos:R:3:REF_forces:R:3:REF_magmom:R:3:REF_magforces:R:3 REF_energy=0.3354514187918997 label_source="analytic Fe2 pair potential; eV and mu_B" config_type=r_3_spin_2 pbc="F F F"
Fe       0.00000000       0.00000000       0.00000000      -0.91246578      -0.00000000      -0.00000000       3.00000000       0.00000000       0.00000000       0.01640827      -0.04640961      -0.00000000
Fe       2.61562500       0.00000000       0.00000000       0.91246578       0.00000000       0.00000000      -0.66666667       1.88561808       0.00000000      -0.07383723      -0.00000000      -0.00000000
2
Properties=species:S:1:pos:R:3:REF_forces:R:3:REF_magmom:R:3:REF_magforces:R:3 REF_energy=0.38467624064217015 label_source="analytic Fe2 pair potential; eV and mu_B" config_type=r_3_spin_3 pbc="F F F"
Fe       0.00000000       0.00000000       0.00000000      -0.96169060      -0.00000000      -0.00000000       1.50000000       0.00000000       0.00000000      -0.00000000      -0.03691862      -0.00000000
Fe       2.61562500       0.00000000       0.00000000       0.96169060       0.00000000       0.00000000       0.00000000       1.50000000       0.00000000      -0.03691862      -0.00000000      -0.00000000
2
Properties=species:S:1:pos:R:3:REF_forces:R:3:REF_magmom:R:3:REF_magforces:R:3 REF_energy=0.4256969255173955 label_source="analytic Fe2 pair potential; eV and mu_B" config_type=r_3_spin_4 pbc="F F F"
Fe       0.00000000       0.00000000       0.00000000      -1.00271129      -0.00000000      -0.00000000       2.00000000       0.00000000       0.00000000      -0.02051034      -0.05801201      -0.00000000
Fe       2.61562500       0.00000000       0.00000000       1.00271129       0.00000000       0.00000000       0.83333333       2.35702260       0.00000000      -0.04922482      -0.00000000      -0.00000000
2
Properties=species:S:1:pos:R:3:REF_forces:R:3:REF_magmom:R:3:REF_magforces:R:3 REF_energy=0.483125884342711 label_source="analytic Fe2 pair potential; eV and mu_B" config_type=r_3_spin_5 pbc="F F F"
Fe       0.00000000       0.00000000       0.00000000      -1.06014025      -0.00000000      -0.00000000       3.00000000       0.00000000       0.00000000      -0.03281655      -0.03669002      -0.00000000
Fe       2.61562500       0.00000000       0.00000000       1.06014025       0.00000000       0.00000000       1.33333333       1.49071198       0.00000000      -0.07383723      -0.00000000      -0.00000000
2
Properties=species:S:1:pos:R:3:REF_forces:R:3:REF_magmom:R:3:REF_magforces:R:3 REF_energy=0.44005416522372437 label_source="analytic Fe2 pair potential; eV and mu_B" config_type=r_3_spin_6 pbc="F F F"
Fe       0.00000000       0.00000000       0.00000000      -1.01706853      -0.00000000      -0.00000000       1.50000000       0.00000000       0.00000000      -0.03691862      -0.00000000      -0.00000000
Fe       2.61562500       0.00000000       0.00000000       1.01706853       0.00000000       0.00000000       1.50000000       0.00000000       0.00000000      -0.03691862      -0.00000000      -0.00000000
2
Properties=species:S:1:pos:R:3:REF_forces:R:3:REF_magmom:R:3:REF_magforces:R:3 REF_energy=0.17470067922531482 label_source="analytic Fe2 pair potential; eV and mu_B" config_type=r_4_spin_0 pbc="F F F"
Fe       0.00000000       0.00000000       0.00000000      -0.60016439      -0.00000000      -0.00000000       2.00000000       0.00000000       0.00000000       0.05447090      -0.00000000      -0.00000000
Fe       2.73750000       0.00000000       0.00000000       0.60016439       0.00000000       0.00000000      -2.50000000       0.00000000       0.00000000      -0.04357672      -0.00000000      -0.00000000
2
Properties=species:S:1:pos:R:3:REF_forces:R:3:REF_magmom:R:3:REF_magforces:R:3 REF_energy=0.19648903797524378 label_source="analytic Fe2 pair potential; eV and mu_B" config_type=r_4_spin_1 pbc="F F F"
Fe       0.00000000       0.00000000       0.00000000      -0.62195275      -0.00000000      -0.00000000       3.00000000       0.00000000       0.00000000       0.02905114      -0.03248017      -0.00000000
Fe       2.73750000       0.00000000       0.00000000       0.62195275       0.00000000       0.00000000      -1.33333333       1.49071198       0.00000000      -0.06536508      -0.00000000      -0.00000000
2
Properties=species:S:1:pos:R:3:REF_forces:R:3:REF_magmom:R:3:REF_magforces:R:3 REF_energy=0.2673012039125129 label_source="analytic Fe2 pair potential; eV and mu_B" config_type=r_4_spin_2 pbc="F F F"
Fe       0.00000000       0.00000000       0.00000000      -0.69276491      -0.00000000      -0.00000000       1.50000000       0.00000000       0.00000000       0.01089418      -0.03081339      -0.00000000
Fe       2.73750000       0.00000000       0.00000000       0.69276491       0.00000000       0.00000000      -0.50000000       1.41421356       0.00000000      -0.03268254      -0.00000000      -0.00000000
2
Properties=species:S:1:pos:R:3:REF_forces:R:3:REF_magmom:R:3:REF_magforces:R:3 REF_energy=0.2836424729749596 label_source="analytic Fe2 pair potential; eV and mu_B" config_type=r_4_spin_3 pbc="F F F"
Fe       0.00000000       0.00000000       0.00000000      -0.70910618      -0.00000000      -0.00000000       2.00000000       0.00000000       0.00000000      -0.00000000      -0.05447090      -0.00000000
Fe       2.73750000       0.00000000       0.00000000       0.70910618       0.00000000       0.00000000       0.00000000       2.50000000       0.00000000      -0.04357672      -0.00000000      -0.00000000
2
Properties=species:S:1:pos:R:3:REF_forces:R:3:REF_magmom:R:3:REF_magforces:R:3 REF_energy=0.3272191904748175 label_source="analytic Fe2 pair potential; eV and mu_B" config_type=r_4_spin_4 pbc="F F F"
Fe       0.00000000       0.00000000       0.00000000      -0.75268290      -0.00000000      -0.00000000       3.00000000       0.00000000       0.00000000      -0.01452557      -0.04108452      -0.00000000
Fe       2.73750000       0.00000000       0.00000000       0.75268290       0.00000000       0.00000000       0.66666667       1.88561808       0.00000000      -0.06536508      -0.00000000      -0.00000000
2
Properties=species:S:1:pos:R:3:REF_forces:R:3:REF_magmom:R:3:REF_magforces:R:3 REF_energy=0.316325011099853 label_source="analytic Fe2 pair potential; eV and mu_B" config_type=r_4_spin_5 pbc="F F F"
Fe       0.00000000       0.00000000       0.00000000      -0.74178872      -0.00000000      -0.00000000       1.50000000       0.00000000       0.00000000      -0.02178836      -0.02436013      -0.00000000
Fe       2.73750000       0.00000000       0.00000000       0.74178872       0.00000000       0.00000000       1.00000000       1.11803399       0.00000000      -0.03268254      -0.00000000      -0.00000000
2
Properties=species:S:1:pos:R:3:REF_forces:R:3:REF_magmom:R:3:REF_magforces:R:3 REF_energy=0.39258426672460434 label_source="analytic Fe2 pair potential; eV and mu_B" config_type=r_4_spin_6 pbc="F F F"
Fe       0.00000000       0.00000000       0.00000000      -0.81804798      -0.00000000      -0.00000000       2.00000000       0.00000000       0.00000000      -0.05447090      -0.00000000      -0.00000000
Fe       2.73750000       0.00000000       0.00000000       0.81804798       0.00000000       0.00000000       2.50000000       0.00000000       0.00000000      -0.04357672      -0.00000000      -0.00000000
2
Properties=species:S:1:pos:R:3:REF_forces:R:3:REF_magmom:R:3:REF_magforces:R:3 REF_energy=0.0934147978020487 label_source="analytic Fe2 pair potential; eV and mu_B" config_type=r_5_spin_0 pbc="F F F"
Fe       0.00000000       0.00000000       0.00000000      -0.40713206      -0.00000000      -0.00000000       3.00000000       0.00000000       0.00000000       0.03857668      -0.00000000      -0.00000000
Fe       2.85937500       0.00000000       0.00000000       0.40713206       0.00000000       0.00000000      -2.00000000       0.00000000       0.00000000      -0.05786502      -0.00000000      -0.00000000
2
Properties=species:S:1:pos:R:3:REF_forces:R:3:REF_magmom:R:3:REF_magforces:R:3 REF_energy=0.1802123327151583 label_source="analytic Fe2 pair potential; eV and mu_B" config_type=r_5_spin_1 pbc="F F F"
Fe       0.00000000       0.00000000       0.00000000      -0.49392960      -0.00000000      -0.00000000       1.50000000       0.00000000       0.00000000       0.01928834      -0.02156502      -0.00000000
Fe       2.85937500       0.00000000       0.00000000       0.49392960       0.00000000       0.00000000      -1.00000000       1.11803399       0.00000000      -0.02893251      -0.00000000      -0.00000000
2
Properties=species:S:1:pos:R:3:REF_forces:R:3:REF_magmom:R:3:REF_magforces:R:3 REF_energy=0.17699760919985796 label_source="analytic Fe2 pair potential; eV and mu_B" config_type=r_5_spin_2 pbc="F F F"
Fe       0.00000000       0.00000000       0.00000000      -0.49071488      -0.00000000      -0.00000000       2.00000000       0.00000000       0.00000000       0.01607362      -0.04546306      -0.00000000
Fe       2.85937500       0.00000000       0.00000000       0.49071488       0.00000000       0.00000000      -0.83333333       2.35702260       0.00000000      -0.03857668      -0.00000000      -0.00000000
2
Properties=species:S:1:pos:R:3:REF_forces:R:3:REF_magmom:R:3:REF_magforces:R:3 REF_energy=0.20914484435286151 label_source="analytic Fe2 pair potential; eV and mu_B" config_type=r_5_spin_3 pbc="F F F"
Fe       0.00000000       0.00000000       0.00000000      -0.52286211      -0.00000000      -0.00000000       3.00000000       0.00000000       0.00000000      -0.00000000      -0.03857668      -0.00000000
Fe       2.85937500       0.00000000       0.00000000       0.52286211       0.00000000       0.00000000       0.00000000       2.00000000       0.00000000      -0.05786502      -0.00000000      -0.00000000
2
Properties=species:S:1:pos:R:3:REF_forces:R:3:REF_magmom:R:3:REF_magforces:R:3 REF_energy=0.22361110017171312 label_source="analytic Fe2 pair potential; eV and mu_B" config_type=r_5_spin_4 pbc="F F F"
Fe       0.00000000       0.00000000       0.00000000      -0.53732837      -0.00000000      -0.00000000       1.50000000       0.00000000       0.00000000      -0.00964417      -0.02727783      -0.00000000
Fe       2.85937500       0.00000000       0.00000000       0.53732837       0.00000000       0.00000000       0.50000000       1.41421356       0.00000000      -0.02893251      -0.00000000      -0.00000000
2
Properties=species:S:1:pos:R:3:REF_forces:R:3:REF_magmom:R:3:REF_magforces:R:3 REF_energy=0.2734393146588686 label_source="analytic Fe2 pair potential; eV and mu_B" config_type=r_5_spin_5 pbc="F F F"
Fe       0.00000000       0.00000000       0.00000000      -0.58715658      -0.00000000      -0.00000000       2.00000000       0.00000000       0.00000000      -0.03214724      -0.03594170      -0.00000000
Fe       2.85937500       0.00000000       0.00000000       0.58715658       0.00000000       0.00000000       1.66666667       1.86338998       0.00000000      -0.03857668      -0.00000000      -0.00000000
2
Properties=species:S:1:pos:R:3:REF_forces:R:3:REF_magmom:R:3:REF_magforces:R:3 REF_energy=0.32487489090367433 label_source="analytic Fe2 pair potential; eV and mu_B" config_type=r_5_spin_6 pbc="F F F"
Fe       0.00000000       0.00000000       0.00000000      -0.63859216      -0.00000000      -0.00000000       3.00000000       0.00000000       0.00000000      -0.03857668      -0.00000000      -0.00000000
Fe       2.85937500       0.00000000       0.00000000       0.63859216       0.00000000       0.00000000       2.00000000       0.00000000       0.00000000      -0.05786502      -0.00000000      -0.00000000
2
Properties=species:S:1:pos:R:3:REF_forces:R:3:REF_magmom:R:3:REF_magforces:R:3 REF_energy=0.11579458736698635 label_source="analytic Fe2 pair potential; eV and mu_B" config_type=r_6_spin_0 pbc="F F F"
Fe       0.00000000       0.00000000       0.00000000      -0.34711519      -0.00000000      -0.00000000       1.50000000       0.00000000       0.00000000       0.02561277      -0.00000000      -0.00000000
Fe       2.98125000       0.00000000       0.00000000       0.34711519       0.00000000       0.00000000      -1.50000000       0.00000000       0.00000000      -0.02561277      -0.00000000      -0.00000000
2
Properties=species:S:1:pos:R:3:REF_forces:R:3:REF_magmom:R:3:REF_magforces:R:3 REF_energy=0.09729647796191276 label_source="analytic Fe2 pair potential; eV and mu_B" config_type=r_6_spin_1 pbc="F F F"
Fe       0.00000000       0.00000000       0.00000000      -0.32861708      -0.00000000      -0.00000000       2.00000000       0.00000000       0.00000000       0.02845863      -0.03181772      -0.00000000
Fe       2.98125000       0.00000000       0.00000000       0.32861708       0.00000000       0.00000000      -1.66666667       1.86338998       0.00000000      -0.03415036      -0.00000000      -0.00000000
2
Properties=species:S:1:pos:R:3:REF_forces:R:3:REF_magmom:R:3:REF_magforces:R:3 REF_energy=0.12006338184508025 label_source="analytic Fe2 pair potential; eV and mu_B" config_type=r_6_spin_2 pbc="F F F"
Fe       0.00000000       0.00000000       0.00000000      -0.35138399      -0.00000000      -0.00000000       3.00000000       0.00000000       0.00000000       0.01138345      -0.03219726      -0.00000000
Fe       2.98125000       0.00000000       0.00000000       0.35138399       0.00000000       0.00000000      -0.66666667       1.88561808       0.00000000      -0.05122553      -0.00000000      -0.00000000
2
Properties=species:S:1:pos:R:3:REF_forces:R:3:REF_magmom:R:3:REF_magforces:R:3 REF_energy=0.15421373766983149 label_source="analytic Fe2 pair potential; eV and mu_B" config_type=r_6_spin_3 pbc="F F F"
Fe       0.00000000       0.00000000       0.00000000      -0.38553434      -0.00000000      -0.00000000       1.50000000       0.00000000       0.00000000      -0.00000000      -0.02561277      -0.00000000
Fe       2.98125000       0.00000000       0.00000000       0.38553434       0.00000000       0.00000000       0.00000000       1.50000000       0.00000000      -0.02561277      -0.00000000      -0.00000000
2
Properties=species:S:1:pos:R:3:REF_forces:R:3:REF_magmom:R:3:REF_magforces:R:3 REF_energy=0.18267236752379085 label_source="analytic Fe2 pair potential; eV and mu_B" config_type=r_6_spin_4 pbc="F F F"
Fe       0.00000000       0.00000000       0.00000000      -0.41399297      -0.00000000      -0.00000000       2.00000000       0.00000000       0.00000000      -0.01422931      -0.04024658      -0.00000000
Fe       2.98125000       0.00000000       0.00000000       0.41399297       0.00000000       0.00000000       0.83333333       2.35702260       0.00000000      -0.03415036      -0.00000000      -0.00000000
2
Properties=species:S:1:pos:R:3:REF_forces:R:3:REF_magmom:R:3:REF_magforces:R:3 REF_energy=0.22251444931933395 label_source="analytic Fe2 pair potential; eV and mu_B" config_type=r_6_spin_5 pbc="F F F"
Fe       0.00000000       0.00000000       0.00000000      -0.45383506      -0.00000000      -0.00000000       3.00000000       0.00000000       0.00000000      -0.02276690      -0.02545417      -0.00000000
Fe       2.98125000       0.00000000       0.00000000       0.45383506       0.00000000       0.00000000       1.33333333       1.49071198       0.00000000      -0.05122553      -0.00000000      -0.00000000
2
Properties=species:S:1:pos:R:3:REF_forces:R:3:REF_magmom:R:3:REF_magforces:R:3 REF_energy=0.19263288797267664 label_source="analytic Fe2 pair potential; eV and mu_B" config_type=r_6_spin_6 pbc="F F F"
Fe       0.00000000       0.00000000       0.00000000      -0.42395349      -0.00000000      -0.00000000       1.50000000       0.00000000       0.00000000      -0.02561277      -0.00000000      -0.00000000
Fe       2.98125000       0.00000000       0.00000000       0.42395349       0.00000000       0.00000000       1.50000000       0.00000000       0.00000000      -0.02561277      -0.00000000      -0.00000000
2
Properties=species:S:1:pos:R:3:REF_forces:R:3:REF_magmom:R:3:REF_magforces:R:3 REF_energy=0.038130303300170976 label_source="analytic Fe2 pair potential; eV and mu_B" config_type=r_7_spin_0 pbc="F F F"
Fe       0.00000000       0.00000000       0.00000000      -0.20869542      -0.00000000      -0.00000000       2.00000000       0.00000000       0.00000000       0.03778989      -0.00000000      -0.00000000
Fe       3.10312500       0.00000000       0.00000000       0.20869542       0.00000000       0.00000000      -2.50000000       0.00000000       0.00000000      -0.03023191      -0.00000000      -0.00000000
2
Properties=species:S:1:pos:R:3:REF_forces:R:3:REF_magmom:R:3:REF_magforces:R:3 REF_energy=0.053246258547519784 label_source="analytic Fe2 pair potential; eV and mu_B" config_type=r_7_spin_1 pbc="F F F"
Fe       0.00000000       0.00000000       0.00000000      -0.22381138      -0.00000000      -0.00000000       3.00000000       0.00000000       0.00000000       0.02015461      -0.02253354      -0.00000000
Fe       3.10312500       0.00000000       0.00000000       0.22381138       0.00000000       0.00000000      -1.33333333       1.49071198       0.00000000      -0.04534787      -0.00000000      -0.00000000
2
Properties=species:S:1:pos:R:3:REF_forces:R:3:REF_magmom:R:3:REF_magforces:R:3 REF_energy=0.10237311310140342 label_source="analytic Fe2 pair potential; eV and mu_B" config_type=r_7_spin_2 pbc="F F F"
Fe       0.00000000       0.00000000       0.00000000      -0.27293823      -0.00000000      -0.00000000       1.50000000       0.00000000       0.00000000       0.00755798      -0.02137719      -0.00000000
Fe       3.10312500       0.00000000       0.00000000       0.27293823       0.00000000       0.00000000      -0.50000000       1.41421356       0.00000000      -0.02267393      -0.00000000      -0.00000000
2
Properties=species:S:1:pos:R:3:REF_forces:R:3:REF_magmom:R:3:REF_magforces:R:3 REF_energy=0.11371007953691502 label_source="analytic Fe2 pair potential; eV and mu_B" config_type=r_7_spin_3 pbc="F F F"
Fe       0.00000000       0.00000000       0.00000000      -0.28427520      -0.00000000      -0.00000000       2.00000000       0.00000000       0.00000000      -0.00000000      -0.03778989      -0.00000000
Fe       3.10312500       0.00000000       0.00000000       0.28427520       0.00000000       0.00000000       0.00000000       2.50000000       0.00000000      -0.03023191      -0.00000000      -0.00000000
2
Properties=species:S:1:pos:R:3:REF_forces:R:3:REF_magmom:R:3:REF_magforces:R:3 REF_energy=0.14394199003161262 label_source="analytic Fe2 pair potential; eV and mu_B" config_type=r_7_spin_4 pbc="F F F"
Fe       0.00000000       0.00000000       0.00000000      -0.31450711      -0.00000000      -0.00000000       3.00000000       0.00000000       0.00000000      -0.01007730      -0.02850292      -0.00000000
Fe       3.10312500       0.00000000       0.00000000       0.31450711       0.00000000       0.00000000       0.66666667       1.88561808       0.00000000      -0.04534787      -0.00000000      -0.00000000
2
Properties=species:S:1:pos:R:3:REF_forces:R:3:REF_magmom:R:3:REF_magforces:R:3 REF_energy=0.13638401240793824 label_source="analytic Fe2 pair potential; eV and mu_B" config_type=r_7_spin_5 pbc="F F F"
Fe       0.00000000       0.00000000       0.00000000      -0.30694913      -0.00000000      -0.00000000       1.50000000       0.00000000       0.00000000      -0.01511596      -0.01690015      -0.00000000
Fe       3.10312500       0.00000000       0.00000000       0.30694913       0.00000000       0.00000000       1.00000000       1.11803399       0.00000000      -0.02267393      -0.00000000      -0.00000000
2
Properties=species:S:1:pos:R:3:REF_forces:R:3:REF_magmom:R:3:REF_magforces:R:3 REF_energy=0.18928985577365906 label_source="analytic Fe2 pair potential; eV and mu_B" config_type=r_7_spin_6 pbc="F F F"
Fe       0.00000000       0.00000000       0.00000000      -0.35985498      -0.00000000      -0.00000000       2.00000000       0.00000000       0.00000000      -0.03778989      -0.00000000      -0.00000000
Fe       3.10312500       0.00000000       0.00000000       0.35985498       0.00000000       0.00000000       2.50000000       0.00000000       0.00000000      -0.03023191      -0.00000000      -0.00000000
2
Properties=species:S:1:pos:R:3:REF_forces:R:3:REF_magmom:R:3:REF_magforces:R:3 REF_energy=0.003555340582590605 label_source="analytic Fe2 pair potential; eV and mu_B" config_type=r_8_spin_0 pbc="F F F"
Fe       0.00000000       0.00000000       0.00000000      -0.12932217      -0.00000000      -0.00000000       3.00000000       0.00000000       0.00000000       0.02676307      -0.00000000      -0.00000000
Fe       3.22500000       0.00000000       0.00000000       0.12932217       0.00000000       0.00000000      -2.00000000       0.00000000       0.00000000      -0.04014461      -0.00000000      -0.00000000
2
Properties=species:S:1:pos:R:3:REF_forces:R:3:REF_magmom:R:3:REF_magforces:R:3 REF_energy=0.06377225129097701 label_source="analytic Fe2 pair potential; eV and mu_B" config_type=r_8_spin_1 pbc="F F F"
Fe       0.00000000       0.00000000       0.00000000      -0.18953908      -0.00000000      -0.00000000       1.50000000       0.00000000       0.00000000       0.01338154      -0.01496101      -0.00000000
Fe       3.22500000       0.00000000       0.00000000       0.18953908       0.00000000       0.00000000      -1.00000000       1.11803399       0.00000000      -0.02007230      -0.00000000      -0.00000000
2
Properties=species:S:1:pos:R:3:REF_forces:R:3:REF_magmom:R:3:REF_magforces:R:3 REF_energy=0.06154199533881454 label_source="analytic Fe2 pair potential; eV and mu_B" config_type=r_8_spin_2 pbc="F F F"
Fe       0.00000000       0.00000000       0.00000000      -0.18730883      -0.00000000      -0.00000000       2.00000000       0.00000000       0.00000000       0.01115128      -0.03154058      -0.00000000
Fe       3.22500000       0.00000000       0.00000000       0.18730883       0.00000000       0.00000000      -0.83333333       2.35702260       0.00000000      -0.02676307      -0.00000000      -0.00000000
2
Properties=species:S:1:pos:R:3:REF_forces:R:3:REF_magmom:R:3:REF_magforces:R:3 REF_energy=0.08384455486043914 label_source="analytic Fe2 pair potential; eV and mu_B" config_type=r_8_spin_3 pbc="F F F"
Fe       0.00000000       0.00000000       0.00000000      -0.20961139      -0.00000000      -0.00000000       3.00000000       0.00000000       0.00000000      -0.00000000      -0.02676307      -0.00000000
Fe       3.22500000       0.00000000       0.00000000       0.20961139       0.00000000       0.00000000       0.00000000       2.00000000       0.00000000      -0.04014461      -0.00000000      -0.00000000
2
Properties=species:S:1:pos:R:3:REF_forces:R:3:REF_magmom:R:3:REF_magforces:R:3 REF_energy=0.0938807066451702 label_source="analytic Fe2 pair potential; eV and mu_B" config_type=r_8_spin_4 pbc="F F F"
Fe       0.00000000       0.00000000       0.00000000      -0.21964754      -0.00000000      -0.00000000       1.50000000       0.00000000       0.00000000      -0.00669077      -0.01892435      -0.00000000
Fe       3.22500000       0.00000000       0.00000000       0.21964754       0.00000000       0.00000000       0.50000000       1.41421356       0.00000000      -0.02007230      -0.00000000      -0.00000000
2
Properties=species:S:1:pos:R:3:REF_forces:R:3:REF_magmom:R:3:REF_magforces:R:3 REF_energy=0.1284496739036883 label_source="analytic Fe2 pair potential; eV and mu_B" config_type=r_8_spin_5 pbc="F F F"
Fe       0.00000000       0.00000000       0.00000000      -0.25421651      -0.00000000      -0.00000000       2.00000000       0.00000000       0.00000000      -0.02230256      -0.02493502      -0.00000000
Fe       3.22500000       0.00000000       0.00000000       0.25421651       0.00000000       0.00000000       1.66666667       1.86338998       0.00000000      -0.02676307      -0.00000000      -0.00000000
2
Properties=species:S:1:pos:R:3:REF_forces:R:3:REF_magmom:R:3:REF_magforces:R:3 REF_energy=0.16413376913828767 label_source="analytic Fe2 pair potential; eV and mu_B" config_type=r_8_spin_6 pbc="F F F"
Fe       0.00000000       0.00000000       0.00000000      -0.28990060      -0.00000000      -0.00000000       3.00000000       0.00000000       0.00000000      -0.02676307      -0.00000000      -0.00000000
Fe       3.22500000       0.00000000       0.00000000       0.28990060       0.00000000       0.00000000       2.00000000       0.00000000       0.00000000      -0.04014461      -0.00000000      -0.00000000
2
Properties=species:S:1:pos:R:3:REF_forces:R:3:REF_magmom:R:3:REF_magforces:R:3 REF_energy=0.03516931625341349 label_source="analytic Fe2 pair potential; eV and mu_B" config_type=r_9_spin_0 pbc="F F F"
Fe       0.00000000       0.00000000       0.00000000      -0.12790396      -0.00000000      -0.00000000       1.50000000       0.00000000       0.00000000       0.01776919      -0.00000000      -0.00000000
Fe       3.34687500       0.00000000       0.00000000       0.12790396       0.00000000       0.00000000      -1.50000000       0.00000000       0.00000000      -0.01776919      -0.00000000      -0.00000000
2
Properties=species:S:1:pos:R:3:REF_forces:R:3:REF_magmom:R:3:REF_magforces:R:3 REF_energy=0.02233601397778584 label_source="analytic Fe2 pair potential; eV and mu_B" config_type=r_9_spin_1 pbc="F F F"
Fe       0.00000000       0.00000000       0.00000000      -0.11507066      -0.00000000      -0.00000000       2.00000000       0.00000000       0.00000000       0.01974354      -0.02207395      -0.00000000
Fe       3.34687500       0.00000000       0.00000000       0.11507066       0.00000000       0.00000000      -1.66666667       1.86338998       0.00000000      -0.02369225      -0.00000000      -0.00000000
2
Properties=species:S:1:pos:R:3:REF_forces:R:3:REF_magmom:R:3:REF_magforces:R:3 REF_energy=0.0381308475477891 label_source="analytic Fe2 pair potential; eV and mu_B" config_type=r_9_spin_2 pbc="F F F"
Fe       0.00000000       0.00000000       0.00000000      -0.13086549      -0.00000000      -0.00000000       3.00000000       0.00000000       0.00000000       0.00789742      -0.02233727      -0.00000000
Fe       3.34687500       0.00000000       0.00000000       0.13086549       0.00000000       0.00000000      -0.66666667       1.88561808       0.00000000      -0.03553838      -0.00000000      -0.00000000
2
Properties=species:S:1:pos:R:3:REF_forces:R:3:REF_magmom:R:3:REF_magforces:R:3 REF_energy=0.06182309790279398 label_source="analytic Fe2 pair potential; eV and mu_B" config_type=r_9_spin_3 pbc="F F F"
Fe       0.00000000       0.00000000       0.00000000      -0.15455774      -0.00000000      -0.00000000       1.50000000       0.00000000       0.00000000      -0.00000000      -0.01776919      -0.00000000
Fe       3.34687500       0.00000000       0.00000000       0.15455774       0.00000000       0.00000000       0.00000000       1.50000000       0.00000000      -0.01776919      -0.00000000      -0.00000000
2
Properties=species:S:1:pos:R:3:REF_forces:R:3:REF_magmom:R:3:REF_magforces:R:3 REF_energy=0.08156663986529804 label_source="analytic Fe2 pair potential; eV and mu_B" config_type=r_9_spin_4 pbc="F F F"
Fe       0.00000000       0.00000000       0.00000000      -0.17430129      -0.00000000      -0.00000000       2.00000000       0.00000000       0.00000000      -0.00987177      -0.02792158      -0.00000000
Fe       3.34687500       0.00000000       0.00000000       0.17430129       0.00000000       0.00000000       0.83333333       2.35702260       0.00000000      -0.02369225      -0.00000000      -0.00000000
2
Properties=species:S:1:pos:R:3:REF_forces:R:3:REF_magmom:R:3:REF_magforces:R:3 REF_energy=0.10920759861280371 label_source="analytic Fe2 pair potential; eV and mu_B" config_type=r_9_spin_5 pbc="F F F"
Fe       0.00000000       0.00000000       0.00000000      -0.20194225      -0.00000000      -0.00000000       3.00000000       0.00000000       0.00000000      -0.01579483      -0.01765916      -0.00000000
Fe       3.34687500       0.00000000       0.00000000       0.20194225       0.00000000       0.00000000       1.33333333       1.49071198       0.00000000      -0.03553838      -0.00000000      -0.00000000
2
Properties=species:S:1:pos:R:3:REF_forces:R:3:REF_magmom:R:3:REF_magforces:R:3 REF_energy=0.08847687955217447 label_source="analytic Fe2 pair potential; eV and mu_B" config_type=r_9_spin_6 pbc="F F F"
Fe       0.00000000       0.00000000       0.00000000      -0.18121153      -0.00000000      -0.00000000       1.50000000       0.00000000       0.00000000      -0.01776919      -0.00000000      -0.00000000
Fe       3.34687500       0.00000000       0.00000000       0.18121153       0.00000000       0.00000000       1.50000000       0.00000000       0.00000000      -0.01776919      -0.00000000      -0.00000000
2
Properties=species:S:1:pos:R:3:REF_forces:R:3:REF_magmom:R:3:REF_magforces:R:3 REF_energy=-0.006848951983178406 label_source="analytic Fe2 pair potential; eV and mu_B" config_type=r_10_spin_0 pbc="F F F"
Fe       0.00000000       0.00000000       0.00000000      -0.06152929      -0.00000000      -0.00000000       2.00000000       0.00000000       0.00000000       0.02621722      -0.00000000      -0.00000000
Fe       3.46875000       0.00000000       0.00000000       0.06152929       0.00000000       0.00000000      -2.50000000       0.00000000       0.00000000      -0.02097378      -0.00000000      -0.00000000
2
Properties=species:S:1:pos:R:3:REF_forces:R:3:REF_magmom:R:3:REF_magforces:R:3 REF_energy=0.0036379371699845064 label_source="analytic Fe2 pair potential; eV and mu_B" config_type=r_10_spin_1 pbc="F F F"
Fe       0.00000000       0.00000000       0.00000000      -0.07201618      -0.00000000      -0.00000000       3.00000000       0.00000000       0.00000000       0.01398252      -0.01563293      -0.00000000
Fe       3.46875000       0.00000000       0.00000000       0.07201618       0.00000000       0.00000000      -1.33333333       1.49071198       0.00000000      -0.03146067      -0.00000000      -0.00000000
2
Properties=species:S:1:pos:R:3:REF_forces:R:3:REF_magmom:R:3:REF_magforces:R:3 REF_energy=0.037720326917763974 label_source="analytic Fe2 pair potential; eV and mu_B" config_type=r_10_spin_2 pbc="F F F"
Fe       0.00000000       0.00000000       0.00000000      -0.10609857      -0.00000000      -0.00000000       1.50000000       0.00000000       0.00000000       0.00524344      -0.01483070      -0.00000000
Fe       3.46875000       0.00000000       0.00000000       0.10609857       0.00000000       0.00000000      -0.50000000       1.41421356       0.00000000      -0.01573033      -0.00000000      -0.00000000
2
Properties=species:S:1:pos:R:3:REF_forces:R:3:REF_magmom:R:3:REF_magforces:R:3 REF_energy=0.04558549378263616 label_source="analytic Fe2 pair potential; eV and mu_B" config_type=r_10_spin_3 pbc="F F F"
Fe       0.00000000       0.00000000       0.00000000      -0.11396373      -0.00000000      -0.00000000       2.00000000       0.00000000       0.00000000      -0.00000000      -0.02621722      -0.00000000
Fe       3.46875000       0.00000000       0.00000000       0.11396373       0.00000000       0.00000000       0.00000000       2.50000000       0.00000000      -0.02097378      -0.00000000      -0.00000000
2
Properties=species:S:1:pos:R:3:REF_forces:R:3:REF_magmom:R:3:REF_magforces:R:3 REF_energy=0.06655927208896198 label_source="analytic Fe2 pair potential; eV and mu_B" config_type=r_10_spin_4 pbc="F F F"
Fe       0.00000000       0.00000000       0.00000000      -0.13493751      -0.00000000      -0.00000000       3.00000000       0.00000000       0.00000000      -0.00699126      -0.01977427      -0.00000000
Fe       3.46875000       0.00000000       0.00000000       0.13493751       0.00000000       0.00000000       0.66666667       1.88561808       0.00000000      -0.03146067      -0.00000000      -0.00000000
2
Properties=species:S:1:pos:R:3:REF_forces:R:3:REF_magmom:R:3:REF_magforces:R:3 REF_energy=0.06131582751238053 label_source="analytic Fe2 pair potential; eV and mu_B" config_type=r_10_spin_5 pbc="F F F"
Fe       0.00000000       0.00000000       0.00000000      -0.12969407      -0.00000000      -0.00000000       1.50000000       0.00000000       0.00000000      -0.01048689      -0.01172470      -0.00000000
Fe       3.46875000       0.00000000       0.00000000       0.12969407       0.00000000       0.00000000       1.00000000       1.11803399       0.00000000      -0.01573033      -0.00000000      -0.00000000
2
Properties=species:S:1:pos:R:3:REF_forces:R:3:REF_magmom:R:3:REF_magforces:R:3 REF_energy=0.09801993954845073 label_source="analytic Fe2 pair potential; eV and mu_B" config_type=r_10_spin_6 pbc="F F F"
Fe       0.00000000       0.00000000       0.00000000      -0.16639818      -0.00000000      -0.00000000       2.00000000       0.00000000       0.00000000      -0.02621722      -0.00000000      -0.00000000
Fe       3.46875000       0.00000000       0.00000000       0.16639818       0.00000000       0.00000000       2.50000000       0.00000000       0.00000000      -0.02097378      -0.00000000      -0.00000000
2
Properties=species:S:1:pos:R:3:REF_forces:R:3:REF_magmom:R:3:REF_magforces:R:3 REF_energy=-0.02208904391446382 label_source="analytic Fe2 pair potential; eV and mu_B" config_type=r_11_spin_0 pbc="F F F"
Fe       0.00000000       0.00000000       0.00000000      -0.02832991      -0.00000000      -0.00000000       3.00000000       0.00000000       0.00000000       0.01856723      -0.00000000      -0.00000000
Fe       3.59062500       0.00000000       0.00000000       0.02832991       0.00000000       0.00000000      -2.00000000       0.00000000       0.00000000      -0.02785084      -0.00000000      -0.00000000
2
Properties=species:S:1:pos:R:3:REF_forces:R:3:REF_magmom:R:3:REF_magforces:R:3 REF_energy=0.01968721550225506 label_source="analytic Fe2 pair potential; eV and mu_B" config_type=r_11_spin_1 pbc="F F F"
Fe       0.00000000       0.00000000       0.00000000      -0.07010617      -0.00000000      -0.00000000       1.50000000       0.00000000       0.00000000       0.00928361      -0.01037940      -0.00000000
Fe       3.59062500       0.00000000       0.00000000       0.07010617       0.00000000       0.00000000      -1.00000000       1.11803399       0.00000000      -0.01392542      -0.00000000      -0.00000000
2
Properties=species:S:1:pos:R:3:REF_forces:R:3:REF_magmom:R:3:REF_magforces:R:3 REF_energy=0.018139946634969175 label_source="analytic Fe2 pair potential; eV and mu_B" config_type=r_11_spin_2 pbc="F F F"
Fe       0.00000000       0.00000000       0.00000000      -0.06855890      -0.00000000      -0.00000000       2.00000000       0.00000000       0.00000000       0.00773634      -0.02188169      -0.00000000
Fe       3.59062500       0.00000000       0.00000000       0.06855890       0.00000000       0.00000000      -0.83333333       2.35702260       0.00000000      -0.01856723      -0.00000000      -0.00000000
2
Properties=species:S:1:pos:R:3:REF_forces:R:3:REF_magmom:R:3:REF_magforces:R:3 REF_energy=0.03361263530782802 label_source="analytic Fe2 pair potential; eV and mu_B" config_type=r_11_spin_3 pbc="F F F"
Fe       0.00000000       0.00000000       0.00000000      -0.08403159      -0.00000000      -0.00000000       3.00000000       0.00000000       0.00000000      -0.00000000      -0.01856723      -0.00000000
Fe       3.59062500       0.00000000       0.00000000       0.08403159       0.00000000       0.00000000       0.00000000       2.00000000       0.00000000      -0.02785084      -0.00000000      -0.00000000
2
Properties=species:S:1:pos:R:3:REF_forces:R:3:REF_magmom:R:3:REF_magforces:R:3 REF_energy=0.0405753452106145 label_source="analytic Fe2 pair potential; eV and mu_B" config_type=r_11_spin_4 pbc="F F F"
Fe       0.00000000       0.00000000       0.00000000      -0.09099430      -0.00000000      -0.00000000       1.50000000       0.00000000       0.00000000      -0.00464181      -0.01312901      -0.00000000
Fe       3.59062500       0.00000000       0.00000000       0.09099430       0.00000000       0.00000000       0.50000000       1.41421356       0.00000000      -0.01392542      -0.00000000      -0.00000000
2
Properties=species:S:1:pos:R:3:REF_forces:R:3:REF_magmom:R:3:REF_magforces:R:3 REF_energy=0.0645580126535457 label_source="analytic Fe2 pair potential; eV and mu_B" config_type=r_11_spin_5 pbc="F F F"
Fe       0.00000000       0.00000000       0.00000000      -0.11497697      -0.00000000      -0.00000000       2.00000000       0.00000000       0.00000000      -0.01547269      -0.01729899      -0.00000000
Fe       3.59062500       0.00000000       0.00000000       0.11497697       0.00000000       0.00000000       1.66666667       1.86338998       0.00000000      -0.01856723      -0.00000000      -0.00000000
2
Properties=species:S:1:pos:R:3:REF_forces:R:3:REF_magmom:R:3:REF_magforces:R:3 REF_energy=0.08931431453011987 label_source="analytic Fe2 pair potential; eV and mu_B" config_type=r_11_spin_6 pbc="F F F"
Fe       0.00000000       0.00000000       0.00000000      -0.13973327      -0.00000000      -0.00000000       3.00000000       0.00000000       0.00000000      -0.01856723      -0.00000000      -0.00000000
Fe       3.59062500       0.00000000       0.00000000       0.13973327       0.00000000       0.00000000       2.00000000       0.00000000       0.00000000      -0.02785084      -0.00000000      -0.00000000
2
Properties=species:S:1:pos:R:3:REF_forces:R:3:REF_magmom:R:3:REF_magforces:R:3 REF_energy=0.006292997862593547 label_source="analytic Fe2 pair potential; eV and mu_B" config_type=r_12_spin_0 pbc="F F F"
Fe       0.00000000       0.00000000       0.00000000      -0.04346960      -0.00000000      -0.00000000       1.50000000       0.00000000       0.00000000       0.01232760      -0.00000000      -0.00000000
Fe       3.71250000       0.00000000       0.00000000       0.04346960       0.00000000       0.00000000      -1.50000000       0.00000000       0.00000000      -0.01232760      -0.00000000      -0.00000000
2
Properties=species:S:1:pos:R:3:REF_forces:R:3:REF_magmom:R:3:REF_magforces:R:3 REF_energy=-0.002610271314334233 label_source="analytic Fe2 pair potential; eV and mu_B" config_type=r_12_spin_1 pbc="F F F"
Fe       0.00000000       0.00000000       0.00000000      -0.03456633      -0.00000000      -0.00000000       2.00000000       0.00000000       0.00000000       0.01369734      -0.01531409      -0.00000000
Fe       3.71250000       0.00000000       0.00000000       0.03456633       0.00000000       0.00000000      -1.66666667       1.86338998       0.00000000      -0.01643680      -0.00000000      -0.00000000
2
Properties=species:S:1:pos:R:3:REF_forces:R:3:REF_magmom:R:3:REF_magforces:R:3 REF_energy=0.008347598441884572 label_source="analytic Fe2 pair potential; eV and mu_B" config_type=r_12_spin_2 pbc="F F F"
Fe       0.00000000       0.00000000       0.00000000      -0.04552420      -0.00000000      -0.00000000       3.00000000       0.00000000       0.00000000       0.00547893      -0.01549677      -0.00000000
Fe       3.71250000       0.00000000       0.00000000       0.04552420       0.00000000       0.00000000      -0.66666667       1.88561808       0.00000000      -0.02465521      -0.00000000      -0.00000000
2
Properties=species:S:1:pos:R:3:REF_forces:R:3:REF_magmom:R:3:REF_magforces:R:3 REF_energy=0.024784403076212772 label_source="analytic Fe2 pair potential; eV and mu_B" config_type=r_12_spin_3 pbc="F F F"
Fe       0.00000000       0.00000000       0.00000000      -0.06196101      -0.00000000      -0.00000000       1.50000000       0.00000000       0.00000000      -0.00000000      -0.01232760      -0.00000000
Fe       3.71250000       0.00000000       0.00000000       0.06196101       0.00000000       0.00000000       0.00000000       1.50000000       0.00000000      -0.01232760      -0.00000000      -0.00000000
2
Properties=species:S:1:pos:R:3:REF_forces:R:3:REF_magmom:R:3:REF_magforces:R:3 REF_energy=0.03848174027148627 label_source="analytic Fe2 pair potential; eV and mu_B" config_type=r_12_spin_4 pbc="F F F"
Fe       0.00000000       0.00000000       0.00000000      -0.07565834      -0.00000000      -0.00000000       2.00000000       0.00000000       0.00000000      -0.00684867      -0.01937096      -0.00000000
Fe       3.71250000       0.00000000       0.00000000       0.07565834       0.00000000       0.00000000       0.83333333       2.35702260       0.00000000      -0.01643680      -0.00000000      -0.00000000
2
Properties=species:S:1:pos:R:3:REF_forces:R:3:REF_magmom:R:3:REF_magforces:R:3 REF_energy=0.05765801234486917 label_source="analytic Fe2 pair potential; eV and mu_B" config_type=r_12_spin_5 pbc="F F F"
Fe       0.00000000       0.00000000       0.00000000      -0.09483462      -0.00000000      -0.00000000       3.00000000       0.00000000       0.00000000      -0.01095787      -0.01225127      -0.00000000
Fe       3.71250000       0.00000000       0.00000000       0.09483462       0.00000000       0.00000000       1.33333333       1.49071198       0.00000000      -0.02465521      -0.00000000      -0.00000000
2
Properties=species:S:1:pos:R:3:REF_forces:R:3:REF_magmom:R:3:REF_magforces:R:3 REF_energy=0.043275808289832 label_source="analytic Fe2 pair potential; eV and mu_B" config_type=r_12_spin_6 pbc="F F F"
Fe       0.00000000       0.00000000       0.00000000      -0.08045241      -0.00000000      -0.00000000       1.50000000       0.00000000       0.00000000      -0.01232760      -0.00000000      -0.00000000
Fe       3.71250000       0.00000000       0.00000000       0.08045241       0.00000000       0.00000000       1.50000000       0.00000000       0.00000000      -0.01232760      -0.00000000      -0.00000000
2
Properties=species:S:1:pos:R:3:REF_forces:R:3:REF_magmom:R:3:REF_magforces:R:3 REF_energy=-0.01810220103038319 label_source="analytic Fe2 pair potential; eV and mu_B" config_type=r_13_spin_0 pbc="F F F"
Fe       0.00000000       0.00000000       0.00000000      -0.00931011      -0.00000000      -0.00000000       2.00000000       0.00000000       0.00000000       0.01818854      -0.00000000      -0.00000000
Fe       3.83437500       0.00000000       0.00000000       0.00931011       0.00000000       0.00000000      -2.50000000       0.00000000       0.00000000      -0.01455083      -0.00000000      -0.00000000
2
Properties=species:S:1:pos:R:3:REF_forces:R:3:REF_magmom:R:3:REF_magforces:R:3 REF_energy=-0.010826786257637392 label_source="analytic Fe2 pair potential; eV and mu_B" config_type=r_13_spin_1 pbc="F F F"
Fe       0.00000000       0.00000000       0.00000000      -0.01658552      -0.00000000      -0.00000000       3.00000000       0.00000000       0.00000000       0.00970055      -0.01084555      -0.00000000
Fe       3.83437500       0.00000000       0.00000000       0.01658552       0.00000000       0.00000000      -1.33333333       1.49071198       0.00000000      -0.02182624      -0.00000000      -0.00000000
2
Properties=species:S:1:pos:R:3:REF_forces:R:3:REF_magmom:R:3:REF_magforces:R:3 REF_energy=0.012818311753786454 label_source="analytic Fe2 pair potential; eV and mu_B" config_type=r_13_spin_2 pbc="F F F"
Fe       0.00000000       0.00000000       0.00000000      -0.04023062      -0.00000000      -0.00000000       1.50000000       0.00000000       0.00000000       0.00363771      -0.01028899      -0.00000000
Fe       3.83437500       0.00000000       0.00000000       0.04023062       0.00000000       0.00000000      -0.50000000       1.41421356       0.00000000      -0.01091312      -0.00000000      -0.00000000
2
Properties=species:S:1:pos:R:3:REF_forces:R:3:REF_magmom:R:3:REF_magforces:R:3 REF_energy=0.018274872833345803 label_source="analytic Fe2 pair potential; eV and mu_B" config_type=r_13_spin_3 pbc="F F F"
Fe       0.00000000       0.00000000       0.00000000      -0.04568718      -0.00000000      -0.00000000       2.00000000       0.00000000       0.00000000      -0.00000000      -0.01818854      -0.00000000
Fe       3.83437500       0.00000000       0.00000000       0.04568718       0.00000000       0.00000000       0.00000000       2.50000000       0.00000000      -0.01455083      -0.00000000      -0.00000000
2
Properties=species:S:1:pos:R:3:REF_forces:R:3:REF_magmom:R:3:REF_magforces:R:3 REF_energy=0.0328257023788374 label_source="analytic Fe2 pair potential; eV and mu_B" config_type=r_13_spin_4 pbc="F F F"
Fe       0.00000000       0.00000000       0.00000000      -0.06023801      -0.00000000      -0.00000000       3.00000000       0.00000000       0.00000000      -0.00485028      -0.01371865      -0.00000000
Fe       3.83437500       0.00000000       0.00000000       0.06023801       0.00000000       0.00000000       0.66666667       1.88561808       0.00000000      -0.02182624      -0.00000000      -0.00000000
2
Properties=species:S:1:pos:R:3:REF_forces:R:3:REF_magmom:R:3:REF_magforces:R:3 REF_energy=0.029187994992464498 label_source="analytic Fe2 pair potential; eV and mu_B" config_type=r_13_spin_5 pbc="F F F"
Fe       0.00000000       0.00000000       0.00000000      -0.05660030      -0.00000000      -0.00000000       1.50000000       0.00000000       0.00000000      -0.00727541      -0.00813416      -0.00000000
Fe       3.83437500       0.00000000       0.00000000       0.05660030       0.00000000       0.00000000       1.00000000       1.11803399       0.00000000      -0.01091312      -0.00000000      -0.00000000
2
Properties=species:S:1:pos:R:3:REF_forces:R:3:REF_magmom:R:3:REF_magforces:R:3 REF_energy=0.054651946697074794 label_source="analytic Fe2 pair potential; eV and mu_B" config_type=r_13_spin_6 pbc="F F F"
Fe       0.00000000       0.00000000       0.00000000      -0.08206426      -0.00000000      -0.00000000       2.00000000       0.00000000       0.00000000      -0.01818854      -0.00000000      -0.00000000
Fe       3.83437500       0.00000000       0.00000000       0.08206426       0.00000000       0.00000000       2.50000000       0.00000000       0.00000000      -0.01455083      -0.00000000      -0.00000000
2
Properties=species:S:1:pos:R:3:REF_forces:R:3:REF_magmom:R:3:REF_magforces:R:3 REF_energy=-0.02516871304212566 label_source="analytic Fe2 pair potential; eV and mu_B" config_type=r_14_spin_0 pbc="F F F"
Fe       0.00000000       0.00000000       0.00000000       0.00495614       0.00000000       0.00000000       3.00000000       0.00000000       0.00000000       0.01288125      -0.00000000      -0.00000000
Fe       3.95625000       0.00000000       0.00000000      -0.00495614      -0.00000000      -0.00000000      -2.00000000       0.00000000       0.00000000      -0.01932188      -0.00000000      -0.00000000
2
Properties=species:S:1:pos:R:3:REF_forces:R:3:REF_magmom:R:3:REF_magforces:R:3 REF_energy=0.003814106407128001 label_source="analytic Fe2 pair potential; eV and mu_B" config_type=r_14_spin_1 pbc="F F F"
Fe       0.00000000       0.00000000       0.00000000      -0.02402668      -0.00000000      -0.00000000       1.50000000       0.00000000       0.00000000       0.00644063      -0.00720084      -0.00000000
Fe       3.95625000       0.00000000       0.00000000       0.02402668       0.00000000       0.00000000      -1.00000000       1.11803399       0.00000000      -0.00966094      -0.00000000      -0.00000000
2
Properties=species:S:1:pos:R:3:REF_forces:R:3:REF_magmom:R:3:REF_magforces:R:3 REF_energy=0.0027406686497482326 label_source="analytic Fe2 pair potential; eV and mu_B" config_type=r_14_spin_2 pbc="F F F"
Fe       0.00000000       0.00000000       0.00000000      -0.02295324      -0.00000000      -0.00000000       2.00000000       0.00000000       0.00000000       0.00536719      -0.01518070      -0.00000000
Fe       3.95625000       0.00000000       0.00000000       0.02295324       0.00000000       0.00000000      -0.83333333       2.35702260       0.00000000      -0.01288125      -0.00000000      -0.00000000
2
Properties=species:S:1:pos:R:3:REF_forces:R:3:REF_magmom:R:3:REF_magforces:R:3 REF_energy=0.013475046223545888 label_source="analytic Fe2 pair potential; eV and mu_B" config_type=r_14_spin_3 pbc="F F F"
Fe       0.00000000       0.00000000       0.00000000      -0.03368762      -0.00000000      -0.00000000       3.00000000       0.00000000       0.00000000      -0.00000000      -0.01288125      -0.00000000
Fe       3.95625000       0.00000000       0.00000000       0.03368762       0.00000000       0.00000000       0.00000000       2.00000000       0.00000000      -0.01932188      -0.00000000      -0.00000000
2
Properties=species:S:1:pos:R:3:REF_forces:R:3:REF_magmom:R:3:REF_magforces:R:3 REF_energy=0.01830551613175483 label_source="analytic Fe2 pair potential; eV and mu_B" config_type=r_14_spin_4 pbc="F F F"
Fe       0.00000000       0.00000000       0.00000000      -0.03851809      -0.00000000      -0.00000000       1.50000000       0.00000000       0.00000000      -0.00322031      -0.00910842      -0.00000000
Fe       3.95625000       0.00000000       0.00000000       0.03851809       0.00000000       0.00000000       0.50000000       1.41421356       0.00000000      -0.00966094      -0.00000000      -0.00000000
2
Properties=species:S:1:pos:R:3:REF_forces:R:3:REF_magmom:R:3:REF_magforces:R:3 REF_energy=0.034943801371141184 label_source="analytic Fe2 pair potential; eV and mu_B" config_type=r_14_spin_5 pbc="F F F"
Fe       0.00000000       0.00000000       0.00000000      -0.05515637      -0.00000000      -0.00000000       2.00000000       0.00000000       0.00000000      -0.01073438      -0.01200140      -0.00000000
Fe       3.95625000       0.00000000       0.00000000       0.05515637       0.00000000       0.00000000       1.66666667       1.86338998       0.00000000      -0.01288125      -0.00000000      -0.00000000
2
Properties=species:S:1:pos:R:3:REF_forces:R:3:REF_magmom:R:3:REF_magforces:R:3 REF_energy=0.052118805489217435 label_source="analytic Fe2 pair potential; eV and mu_B" config_type=r_14_spin_6 pbc="F F F"
Fe       0.00000000       0.00000000       0.00000000      -0.07233137      -0.00000000      -0.00000000       3.00000000       0.00000000       0.00000000      -0.01288125      -0.00000000      -0.00000000
Fe       3.95625000       0.00000000       0.00000000       0.07233137       0.00000000       0.00000000       2.00000000       0.00000000       0.00000000      -0.01932188      -0.00000000      -0.00000000
2
Properties=species:S:1:pos:R:3:REF_forces:R:3:REF_magmom:R:3:REF_magforces:R:3 REF_energy=-0.002892775137691976 label_source="analytic Fe2 pair potential; eV and mu_B" config_type=r_15_spin_0 pbc="F F F"
Fe       0.00000000       0.00000000       0.00000000      -0.01201104      -0.00000000      -0.00000000       1.50000000       0.00000000       0.00000000       0.00855243      -0.00000000      -0.00000000
Fe       4.07812500       0.00000000       0.00000000       0.01201104       0.00000000       0.00000000      -1.50000000       0.00000000       0.00000000      -0.00855243      -0.00000000      -0.00000000
2
Properties=species:S:1:pos:R:3:REF_forces:R:3:REF_magmom:R:3:REF_magforces:R:3 REF_energy=-0.009069533101803402 label_source="analytic Fe2 pair potential; eV and mu_B" config_type=r_15_spin_1 pbc="F F F"
Fe       0.00000000       0.00000000       0.00000000      -0.00583428      -0.00000000      -0.00000000       2.00000000       0.00000000       0.00000000       0.00950270      -0.01062435      -0.00000000
Fe       4.07812500       0.00000000       0.00000000       0.00583428       0.00000000       0.00000000      -1.66666667       1.86338998       0.00000000      -0.01140325      -0.00000000      -0.00000000
2
Properties=species:S:1:pos:R:3:REF_forces:R:3:REF_magmom:R:3:REF_magforces:R:3 REF_energy=-0.001467369453666264 label_source="analytic Fe2 pair potential; eV and mu_B" config_type=r_15_spin_2 pbc="F F F"
Fe       0.00000000       0.00000000       0.00000000      -0.01343644      -0.00000000      -0.00000000       3.00000000       0.00000000       0.00000000       0.00380108      -0.01075108      -0.00000000
Fe       4.07812500       0.00000000       0.00000000       0.01343644       0.00000000       0.00000000      -0.66666667       1.88561808       0.00000000      -0.01710487      -0.00000000      -0.00000000
2
Properties=species:S:1:pos:R:3:REF_forces:R:3:REF_magmom:R:3:REF_magforces:R:3 REF_energy=0.009935876018539439 label_source="analytic Fe2 pair potential; eV and mu_B" config_type=r_15_spin_3 pbc="F F F"
Fe       0.00000000       0.00000000       0.00000000      -0.02483969      -0.00000000      -0.00000000       1.50000000       0.00000000       0.00000000      -0.00000000      -0.00855243      -0.00000000
Fe       4.07812500       0.00000000       0.00000000       0.02483969       0.00000000       0.00000000       0.00000000       1.50000000       0.00000000      -0.00855243      -0.00000000      -0.00000000
2
Properties=species:S:1:pos:R:3:REF_forces:R:3:REF_magmom:R:3:REF_magforces:R:3 REF_energy=0.019438580578710854 label_source="analytic Fe2 pair potential; eV and mu_B" config_type=r_15_spin_4 pbc="F F F"
Fe       0.00000000       0.00000000       0.00000000      -0.03434239      -0.00000000      -0.00000000       2.00000000       0.00000000       0.00000000      -0.00475135      -0.01343885      -0.00000000
Fe       4.07812500       0.00000000       0.00000000       0.03434239       0.00000000       0.00000000       0.83333333       2.35702260       0.00000000      -0.01140325      -0.00000000      -0.00000000
2
Properties=species:S:1:pos:R:3:REF_forces:R:3:REF_magmom:R:3:REF_magforces:R:3 REF_energy=0.03274236696295084 label_source="analytic Fe2 pair potential; eV and mu_B" config_type=r_15_spin_5 pbc="F F F"
Fe       0.00000000       0.00000000       0.00000000      -0.04764618      -0.00000000      -0.00000000       3.00000000       0.00000000       0.00000000      -0.00760216      -0.00849948      -0.00000000
Fe       4.07812500       0.00000000       0.00000000       0.04764618       0.00000000       0.00000000       1.33333333       1.49071198       0.00000000      -0.01710487      -0.00000000      -0.00000000
2
Properties=species:S:1:pos:R:3:REF_forces:R:3:REF_magmom:R:3:REF_magforces:R:3 REF_energy=0.022764527174770854 label_source="analytic Fe2 pair potential; eV and mu_B" config_type=r_15_spin_6 pbc="F F F"
Fe       0.00000000       0.00000000       0.00000000      -0.03766834      -0.00000000      -0.00000000       1.50000000       0.00000000       0.00000000      -0.00855243      -0.00000000      -0.00000000
Fe       4.07812500       0.00000000       0.00000000       0.03766834       0.00000000       0.00000000       1.50000000       0.00000000       0.00000000      -0.00855243      -0.00000000      -0.00000000
2
Properties=species:S:1:pos:R:3:REF_forces:R:3:REF_magmom:R:3:REF_magforces:R:3 REF_energy=-0.01791080919383825 label_source="analytic Fe2 pair potential; eV and mu_B" config_type=r_16_spin_0 pbc="F F F"
Fe       0.00000000       0.00000000       0.00000000       0.00692143       0.00000000       0.00000000       2.00000000       0.00000000       0.00000000       0.01261853      -0.00000000      -0.00000000
Fe       4.20000000       0.00000000       0.00000000      -0.00692143      -0.00000000      -0.00000000      -2.50000000       0.00000000       0.00000000      -0.01009483      -0.00000000      -0.00000000
2
Properties=species:S:1:pos:R:3:REF_forces:R:3:REF_magmom:R:3:REF_magforces:R:3 REF_energy=-0.012863396243971866 label_source="analytic Fe2 pair potential; eV and mu_B" config_type=r_16_spin_1 pbc="F F F"
Fe       0.00000000       0.00000000       0.00000000       0.00187401       0.00000000       0.00000000       3.00000000       0.00000000       0.00000000       0.00672988      -0.00752424      -0.00000000
Fe       4.20000000       0.00000000       0.00000000      -0.00187401      -0.00000000      -0.00000000      -1.33333333       1.49071198       0.00000000      -0.01514224      -0.00000000      -0.00000000
2
Properties=species:S:1:pos:R:3:REF_forces:R:3:REF_magmom:R:3:REF_magforces:R:3 REF_energy=0.0035406958430938837 label_source="analytic Fe2 pair potential; eV and mu_B" config_type=r_16_spin_2 pbc="F F F"
Fe       0.00000000       0.00000000       0.00000000      -0.01453008      -0.00000000      -0.00000000       1.50000000       0.00000000       0.00000000       0.00252371      -0.00713812      -0.00000000
Fe       4.20000000       0.00000000       0.00000000       0.01453008       0.00000000       0.00000000      -0.50000000       1.41421356       0.00000000      -0.00757112      -0.00000000      -0.00000000
2
Properties=species:S:1:pos:R:3:REF_forces:R:3:REF_magmom:R:3:REF_magforces:R:3 REF_energy=0.007326255555493672 label_source="analytic Fe2 pair potential; eV and mu_B" config_type=r_16_spin_3 pbc="F F F"
Fe       0.00000000       0.00000000       0.00000000      -0.01831564      -0.00000000      -0.00000000       2.00000000       0.00000000       0.00000000      -0.00000000      -0.01261853      -0.00000000
Fe       4.20000000       0.00000000       0.00000000       0.01831564       0.00000000       0.00000000       0.00000000       2.50000000       0.00000000      -0.01009483      -0.00000000      -0.00000000
2
Properties=species:S:1:pos:R:3:REF_forces:R:3:REF_magmom:R:3:REF_magforces:R:3 REF_energy=0.017421081455226438 label_source="analytic Fe2 pair potential; eV and mu_B" config_type=r_16_spin_4 pbc="F F F"
Fe       0.00000000       0.00000000       0.00000000      -0.02841046      -0.00000000      -0.00000000       3.00000000       0.00000000       0.00000000      -0.00336494      -0.00951749      -0.00000000
Fe       4.20000000       0.00000000       0.00000000       0.02841046       0.00000000       0.00000000       0.66666667       1.88561808       0.00000000      -0.01514224      -0.00000000      -0.00000000
2
Properties=species:S:1:pos:R:3:REF_forces:R:3:REF_magmom:R:3:REF_magforces:R:3 REF_energy=0.014897374980293247 label_source="analytic Fe2 pair potential; eV and mu_B" config_type=r_16_spin_5 pbc="F F F"
Fe       0.00000000       0.00000000       0.00000000      -0.02588676      -0.00000000      -0.00000000       1.50000000       0.00000000       0.00000000      -0.00504741      -0.00564318      -0.00000000
Fe       4.20000000       0.00000000       0.00000000       0.02588676       0.00000000       0.00000000       1.00000000       1.11803399       0.00000000      -0.00757112      -0.00000000      -0.00000000
2
Properties=species:S:1:pos:R:3:REF_forces:R:3:REF_magmom:R:3:REF_magforces:R:3 REF_energy=0.032563320304825595 label_source="analytic Fe2 pair potential; eV and mu_B" config_type=r_16_spin_6 pbc="F F F"
Fe       0.00000000       0.00000000       0.00000000      -0.04355270      -0.00000000      -0.00000000       2.00000000       0.00000000       0.00000000      -0.01261853      -0.00000000      -0.00000000
Fe       4.20000000       0.00000000       0.00000000       0.04355270       0.00000000       0.00000000       2.50000000       0.00000000       0.00000000      -0.01009483      -0.00000000      -0.00000000
